%%MatrixMarket matrix coordinate real general
%
1000 1000 2998
1 1 2.004002E5
1 2 -9.96996E4
2 1 -1.007006E5
2 2 2.004002E5
2 3 -9.96996E4
3 2 -1.007006E5
3 3 2.004002E5
3 4 -9.96996E4
4 3 -1.007006E5
4 4 2.004002E5
4 5 -9.96996E4
5 4 -1.007006E5
5 5 2.004002E5
5 6 -9.96996E4
6 5 -1.007006E5
6 6 2.004002E5
6 7 -9.96996E4
7 6 -1.007006E5
7 7 2.004002E5
7 8 -9.96996E4
8 7 -1.007006E5
8 8 2.004002E5
8 9 -9.96996E4
9 8 -1.007006E5
9 9 2.004002E5
9 10 -9.96996E4
10 9 -1.007006E5
10 10 2.004002E5
10 11 -9.96996E4
11 10 -1.007006E5
11 11 2.004002E5
11 12 -9.96996E4
12 11 -1.007006E5
12 12 2.004002E5
12 13 -9.96996E4
13 12 -1.007006E5
13 13 2.004002E5
13 14 -9.96996E4
14 13 -1.007006E5
14 14 2.004002E5
14 15 -9.96996E4
15 14 -1.007006E5
15 15 2.004002E5
15 16 -9.96996E4
16 15 -1.007006E5
16 16 2.004002E5
16 17 -9.96996E4
17 16 -1.007006E5
17 17 2.004002E5
17 18 -9.96996E4
18 17 -1.007006E5
18 18 2.004002E5
18 19 -9.96996E4
19 18 -1.007006E5
19 19 2.004002E5
19 20 -9.96996E4
20 19 -1.007006E5
20 20 2.004002E5
20 21 -9.96996E4
21 20 -1.007006E5
21 21 2.004002E5
21 22 -9.96996E4
22 21 -1.007006E5
22 22 2.004002E5
22 23 -9.96996E4
23 22 -1.007006E5
23 23 2.004002E5
23 24 -9.96996E4
24 23 -1.007006E5
24 24 2.004002E5
24 25 -9.96996E4
25 24 -1.007006E5
25 25 2.004002E5
25 26 -9.96996E4
26 25 -1.007006E5
26 26 2.004002E5
26 27 -9.96996E4
27 26 -1.007006E5
27 27 2.004002E5
27 28 -9.96996E4
28 27 -1.007006E5
28 28 2.004002E5
28 29 -9.96996E4
29 28 -1.007006E5
29 29 2.004002E5
29 30 -9.96996E4
30 29 -1.007006E5
30 30 2.004002E5
30 31 -9.96996E4
31 30 -1.007006E5
31 31 2.004002E5
31 32 -9.96996E4
32 31 -1.007006E5
32 32 2.004002E5
32 33 -9.96996E4
33 32 -1.007006E5
33 33 2.004002E5
33 34 -9.96996E4
34 33 -1.007006E5
34 34 2.004002E5
34 35 -9.96996E4
35 34 -1.007006E5
35 35 2.004002E5
35 36 -9.96996E4
36 35 -1.007006E5
36 36 2.004002E5
36 37 -9.96996E4
37 36 -1.007006E5
37 37 2.004002E5
37 38 -9.96996E4
38 37 -1.007006E5
38 38 2.004002E5
38 39 -9.96996E4
39 38 -1.007006E5
39 39 2.004002E5
39 40 -9.96996E4
40 39 -1.007006E5
40 40 2.004002E5
40 41 -9.96996E4
41 40 -1.007006E5
41 41 2.004002E5
41 42 -9.96996E4
42 41 -1.007006E5
42 42 2.004002E5
42 43 -9.96996E4
43 42 -1.007006E5
43 43 2.004002E5
43 44 -9.96996E4
44 43 -1.007006E5
44 44 2.004002E5
44 45 -9.96996E4
45 44 -1.007006E5
45 45 2.004002E5
45 46 -9.96996E4
46 45 -1.007006E5
46 46 2.004002E5
46 47 -9.96996E4
47 46 -1.007006E5
47 47 2.004002E5
47 48 -9.96996E4
48 47 -1.007006E5
48 48 2.004002E5
48 49 -9.96996E4
49 48 -1.007006E5
49 49 2.004002E5
49 50 -9.96996E4
50 49 -1.007006E5
50 50 2.004002E5
50 51 -9.96996E4
51 50 -1.007006E5
51 51 2.004002E5
51 52 -9.96996E4
52 51 -1.007006E5
52 52 2.004002E5
52 53 -9.96996E4
53 52 -1.007006E5
53 53 2.004002E5
53 54 -9.96996E4
54 53 -1.007006E5
54 54 2.004002E5
54 55 -9.96996E4
55 54 -1.007006E5
55 55 2.004002E5
55 56 -9.96996E4
56 55 -1.007006E5
56 56 2.004002E5
56 57 -9.96996E4
57 56 -1.007006E5
57 57 2.004002E5
57 58 -9.96996E4
58 57 -1.007006E5
58 58 2.004002E5
58 59 -9.96996E4
59 58 -1.007006E5
59 59 2.004002E5
59 60 -9.96996E4
60 59 -1.007006E5
60 60 2.004002E5
60 61 -9.96996E4
61 60 -1.007006E5
61 61 2.004002E5
61 62 -9.96996E4
62 61 -1.007006E5
62 62 2.004002E5
62 63 -9.96996E4
63 62 -1.007006E5
63 63 2.004002E5
63 64 -9.96996E4
64 63 -1.007006E5
64 64 2.004002E5
64 65 -9.96996E4
65 64 -1.007006E5
65 65 2.004002E5
65 66 -9.96996E4
66 65 -1.007006E5
66 66 2.004002E5
66 67 -9.96996E4
67 66 -1.007006E5
67 67 2.004002E5
67 68 -9.96996E4
68 67 -1.007006E5
68 68 2.004002E5
68 69 -9.96996E4
69 68 -1.007006E5
69 69 2.004002E5
69 70 -9.96996E4
70 69 -1.007006E5
70 70 2.004002E5
70 71 -9.96996E4
71 70 -1.007006E5
71 71 2.004002E5
71 72 -9.96996E4
72 71 -1.007006E5
72 72 2.004002E5
72 73 -9.96996E4
73 72 -1.007006E5
73 73 2.004002E5
73 74 -9.96996E4
74 73 -1.007006E5
74 74 2.004002E5
74 75 -9.96996E4
75 74 -1.007006E5
75 75 2.004002E5
75 76 -9.96996E4
76 75 -1.007006E5
76 76 2.004002E5
76 77 -9.96996E4
77 76 -1.007006E5
77 77 2.004002E5
77 78 -9.96996E4
78 77 -1.007006E5
78 78 2.004002E5
78 79 -9.96996E4
79 78 -1.007006E5
79 79 2.004002E5
79 80 -9.96996E4
80 79 -1.007006E5
80 80 2.004002E5
80 81 -9.96996E4
81 80 -1.007006E5
81 81 2.004002E5
81 82 -9.96996E4
82 81 -1.007006E5
82 82 2.004002E5
82 83 -9.96996E4
83 82 -1.007006E5
83 83 2.004002E5
83 84 -9.96996E4
84 83 -1.007006E5
84 84 2.004002E5
84 85 -9.96996E4
85 84 -1.007006E5
85 85 2.004002E5
85 86 -9.96996E4
86 85 -1.007006E5
86 86 2.004002E5
86 87 -9.96996E4
87 86 -1.007006E5
87 87 2.004002E5
87 88 -9.96996E4
88 87 -1.007006E5
88 88 2.004002E5
88 89 -9.96996E4
89 88 -1.007006E5
89 89 2.004002E5
89 90 -9.96996E4
90 89 -1.007006E5
90 90 2.004002E5
90 91 -9.96996E4
91 90 -1.007006E5
91 91 2.004002E5
91 92 -9.96996E4
92 91 -1.007006E5
92 92 2.004002E5
92 93 -9.96996E4
93 92 -1.007006E5
93 93 2.004002E5
93 94 -9.96996E4
94 93 -1.007006E5
94 94 2.004002E5
94 95 -9.96996E4
95 94 -1.007006E5
95 95 2.004002E5
95 96 -9.96996E4
96 95 -1.007006E5
96 96 2.004002E5
96 97 -9.96996E4
97 96 -1.007006E5
97 97 2.004002E5
97 98 -9.96996E4
98 97 -1.007006E5
98 98 2.004002E5
98 99 -9.96996E4
99 98 -1.007006E5
99 99 2.004002E5
99 100 -9.96996E4
100 99 -1.007006E5
100 100 2.004002E5
100 101 -9.96996E4
101 100 -1.007006E5
101 101 2.004002E5
101 102 -9.96996E4
102 101 -1.007006E5
102 102 2.004002E5
102 103 -9.96996E4
103 102 -1.007006E5
103 103 2.004002E5
103 104 -9.96996E4
104 103 -1.007006E5
104 104 2.004002E5
104 105 -9.96996E4
105 104 -1.007006E5
105 105 2.004002E5
105 106 -9.96996E4
106 105 -1.007006E5
106 106 2.004002E5
106 107 -9.96996E4
107 106 -1.007006E5
107 107 2.004002E5
107 108 -9.96996E4
108 107 -1.007006E5
108 108 2.004002E5
108 109 -9.96996E4
109 108 -1.007006E5
109 109 2.004002E5
109 110 -9.96996E4
110 109 -1.007006E5
110 110 2.004002E5
110 111 -9.96996E4
111 110 -1.007006E5
111 111 2.004002E5
111 112 -9.96996E4
112 111 -1.007006E5
112 112 2.004002E5
112 113 -9.96996E4
113 112 -1.007006E5
113 113 2.004002E5
113 114 -9.96996E4
114 113 -1.007006E5
114 114 2.004002E5
114 115 -9.96996E4
115 114 -1.007006E5
115 115 2.004002E5
115 116 -9.96996E4
116 115 -1.007006E5
116 116 2.004002E5
116 117 -9.96996E4
117 116 -1.007006E5
117 117 2.004002E5
117 118 -9.96996E4
118 117 -1.007006E5
118 118 2.004002E5
118 119 -9.96996E4
119 118 -1.007006E5
119 119 2.004002E5
119 120 -9.96996E4
120 119 -1.007006E5
120 120 2.004002E5
120 121 -9.96996E4
121 120 -1.007006E5
121 121 2.004002E5
121 122 -9.96996E4
122 121 -1.007006E5
122 122 2.004002E5
122 123 -9.96996E4
123 122 -1.007006E5
123 123 2.004002E5
123 124 -9.96996E4
124 123 -1.007006E5
124 124 2.004002E5
124 125 -9.96996E4
125 124 -1.007006E5
125 125 2.004002E5
125 126 -9.96996E4
126 125 -1.007006E5
126 126 2.004002E5
126 127 -9.96996E4
127 126 -1.007006E5
127 127 2.004002E5
127 128 -9.96996E4
128 127 -1.007006E5
128 128 2.004002E5
128 129 -9.96996E4
129 128 -1.007006E5
129 129 2.004002E5
129 130 -9.96996E4
130 129 -1.007006E5
130 130 2.004002E5
130 131 -9.96996E4
131 130 -1.007006E5
131 131 2.004002E5
131 132 -9.96996E4
132 131 -1.007006E5
132 132 2.004002E5
132 133 -9.96996E4
133 132 -1.007006E5
133 133 2.004002E5
133 134 -9.96996E4
134 133 -1.007006E5
134 134 2.004002E5
134 135 -9.96996E4
135 134 -1.007006E5
135 135 2.004002E5
135 136 -9.96996E4
136 135 -1.007006E5
136 136 2.004002E5
136 137 -9.96996E4
137 136 -1.007006E5
137 137 2.004002E5
137 138 -9.96996E4
138 137 -1.007006E5
138 138 2.004002E5
138 139 -9.96996E4
139 138 -1.007006E5
139 139 2.004002E5
139 140 -9.96996E4
140 139 -1.007006E5
140 140 2.004002E5
140 141 -9.96996E4
141 140 -1.007006E5
141 141 2.004002E5
141 142 -9.96996E4
142 141 -1.007006E5
142 142 2.004002E5
142 143 -9.96996E4
143 142 -1.007006E5
143 143 2.004002E5
143 144 -9.96996E4
144 143 -1.007006E5
144 144 2.004002E5
144 145 -9.96996E4
145 144 -1.007006E5
145 145 2.004002E5
145 146 -9.96996E4
146 145 -1.007006E5
146 146 2.004002E5
146 147 -9.96996E4
147 146 -1.007006E5
147 147 2.004002E5
147 148 -9.96996E4
148 147 -1.007006E5
148 148 2.004002E5
148 149 -9.96996E4
149 148 -1.007006E5
149 149 2.004002E5
149 150 -9.96996E4
150 149 -1.007006E5
150 150 2.004002E5
150 151 -9.96996E4
151 150 -1.007006E5
151 151 2.004002E5
151 152 -9.96996E4
152 151 -1.007006E5
152 152 2.004002E5
152 153 -9.96996E4
153 152 -1.007006E5
153 153 2.004002E5
153 154 -9.96996E4
154 153 -1.007006E5
154 154 2.004002E5
154 155 -9.96996E4
155 154 -1.007006E5
155 155 2.004002E5
155 156 -9.96996E4
156 155 -1.007006E5
156 156 2.004002E5
156 157 -9.96996E4
157 156 -1.007006E5
157 157 2.004002E5
157 158 -9.96996E4
158 157 -1.007006E5
158 158 2.004002E5
158 159 -9.96996E4
159 158 -1.007006E5
159 159 2.004002E5
159 160 -9.96996E4
160 159 -1.007006E5
160 160 2.004002E5
160 161 -9.96996E4
161 160 -1.007006E5
161 161 2.004002E5
161 162 -9.96996E4
162 161 -1.007006E5
162 162 2.004002E5
162 163 -9.96996E4
163 162 -1.007006E5
163 163 2.004002E5
163 164 -9.96996E4
164 163 -1.007006E5
164 164 2.004002E5
164 165 -9.96996E4
165 164 -1.007006E5
165 165 2.004002E5
165 166 -9.96996E4
166 165 -1.007006E5
166 166 2.004002E5
166 167 -9.96996E4
167 166 -1.007006E5
167 167 2.004002E5
167 168 -9.96996E4
168 167 -1.007006E5
168 168 2.004002E5
168 169 -9.96996E4
169 168 -1.007006E5
169 169 2.004002E5
169 170 -9.96996E4
170 169 -1.007006E5
170 170 2.004002E5
170 171 -9.96996E4
171 170 -1.007006E5
171 171 2.004002E5
171 172 -9.96996E4
172 171 -1.007006E5
172 172 2.004002E5
172 173 -9.96996E4
173 172 -1.007006E5
173 173 2.004002E5
173 174 -9.96996E4
174 173 -1.007006E5
174 174 2.004002E5
174 175 -9.96996E4
175 174 -1.007006E5
175 175 2.004002E5
175 176 -9.96996E4
176 175 -1.007006E5
176 176 2.004002E5
176 177 -9.96996E4
177 176 -1.007006E5
177 177 2.004002E5
177 178 -9.96996E4
178 177 -1.007006E5
178 178 2.004002E5
178 179 -9.96996E4
179 178 -1.007006E5
179 179 2.004002E5
179 180 -9.96996E4
180 179 -1.007006E5
180 180 2.004002E5
180 181 -9.96996E4
181 180 -1.007006E5
181 181 2.004002E5
181 182 -9.96996E4
182 181 -1.007006E5
182 182 2.004002E5
182 183 -9.96996E4
183 182 -1.007006E5
183 183 2.004002E5
183 184 -9.96996E4
184 183 -1.007006E5
184 184 2.004002E5
184 185 -9.96996E4
185 184 -1.007006E5
185 185 2.004002E5
185 186 -9.96996E4
186 185 -1.007006E5
186 186 2.004002E5
186 187 -9.96996E4
187 186 -1.007006E5
187 187 2.004002E5
187 188 -9.96996E4
188 187 -1.007006E5
188 188 2.004002E5
188 189 -9.96996E4
189 188 -1.007006E5
189 189 2.004002E5
189 190 -9.96996E4
190 189 -1.007006E5
190 190 2.004002E5
190 191 -9.96996E4
191 190 -1.007006E5
191 191 2.004002E5
191 192 -9.96996E4
192 191 -1.007006E5
192 192 2.004002E5
192 193 -9.96996E4
193 192 -1.007006E5
193 193 2.004002E5
193 194 -9.96996E4
194 193 -1.007006E5
194 194 2.004002E5
194 195 -9.96996E4
195 194 -1.007006E5
195 195 2.004002E5
195 196 -9.96996E4
196 195 -1.007006E5
196 196 2.004002E5
196 197 -9.96996E4
197 196 -1.007006E5
197 197 2.004002E5
197 198 -9.96996E4
198 197 -1.007006E5
198 198 2.004002E5
198 199 -9.96996E4
199 198 -1.007006E5
199 199 2.004002E5
199 200 -9.96996E4
200 199 -1.007006E5
200 200 2.004002E5
200 201 -9.96996E4
201 200 -1.007006E5
201 201 2.004002E5
201 202 -9.96996E4
202 201 -1.007006E5
202 202 2.004002E5
202 203 -9.96996E4
203 202 -1.007006E5
203 203 2.004002E5
203 204 -9.96996E4
204 203 -1.007006E5
204 204 2.004002E5
204 205 -9.96996E4
205 204 -1.007006E5
205 205 2.004002E5
205 206 -9.96996E4
206 205 -1.007006E5
206 206 2.004002E5
206 207 -9.96996E4
207 206 -1.007006E5
207 207 2.004002E5
207 208 -9.96996E4
208 207 -1.007006E5
208 208 2.004002E5
208 209 -9.96996E4
209 208 -1.007006E5
209 209 2.004002E5
209 210 -9.96996E4
210 209 -1.007006E5
210 210 2.004002E5
210 211 -9.96996E4
211 210 -1.007006E5
211 211 2.004002E5
211 212 -9.96996E4
212 211 -1.007006E5
212 212 2.004002E5
212 213 -9.96996E4
213 212 -1.007006E5
213 213 2.004002E5
213 214 -9.96996E4
214 213 -1.007006E5
214 214 2.004002E5
214 215 -9.96996E4
215 214 -1.007006E5
215 215 2.004002E5
215 216 -9.96996E4
216 215 -1.007006E5
216 216 2.004002E5
216 217 -9.96996E4
217 216 -1.007006E5
217 217 2.004002E5
217 218 -9.96996E4
218 217 -1.007006E5
218 218 2.004002E5
218 219 -9.96996E4
219 218 -1.007006E5
219 219 2.004002E5
219 220 -9.96996E4
220 219 -1.007006E5
220 220 2.004002E5
220 221 -9.96996E4
221 220 -1.007006E5
221 221 2.004002E5
221 222 -9.96996E4
222 221 -1.007006E5
222 222 2.004002E5
222 223 -9.96996E4
223 222 -1.007006E5
223 223 2.004002E5
223 224 -9.96996E4
224 223 -1.007006E5
224 224 2.004002E5
224 225 -9.96996E4
225 224 -1.007006E5
225 225 2.004002E5
225 226 -9.96996E4
226 225 -1.007006E5
226 226 2.004002E5
226 227 -9.96996E4
227 226 -1.007006E5
227 227 2.004002E5
227 228 -9.96996E4
228 227 -1.007006E5
228 228 2.004002E5
228 229 -9.96996E4
229 228 -1.007006E5
229 229 2.004002E5
229 230 -9.96996E4
230 229 -1.007006E5
230 230 2.004002E5
230 231 -9.96996E4
231 230 -1.007006E5
231 231 2.004002E5
231 232 -9.96996E4
232 231 -1.007006E5
232 232 2.004002E5
232 233 -9.96996E4
233 232 -1.007006E5
233 233 2.004002E5
233 234 -9.96996E4
234 233 -1.007006E5
234 234 2.004002E5
234 235 -9.96996E4
235 234 -1.007006E5
235 235 2.004002E5
235 236 -9.96996E4
236 235 -1.007006E5
236 236 2.004002E5
236 237 -9.96996E4
237 236 -1.007006E5
237 237 2.004002E5
237 238 -9.96996E4
238 237 -1.007006E5
238 238 2.004002E5
238 239 -9.96996E4
239 238 -1.007006E5
239 239 2.004002E5
239 240 -9.96996E4
240 239 -1.007006E5
240 240 2.004002E5
240 241 -9.96996E4
241 240 -1.007006E5
241 241 2.004002E5
241 242 -9.96996E4
242 241 -1.007006E5
242 242 2.004002E5
242 243 -9.96996E4
243 242 -1.007006E5
243 243 2.004002E5
243 244 -9.96996E4
244 243 -1.007006E5
244 244 2.004002E5
244 245 -9.96996E4
245 244 -1.007006E5
245 245 2.004002E5
245 246 -9.96996E4
246 245 -1.007006E5
246 246 2.004002E5
246 247 -9.96996E4
247 246 -1.007006E5
247 247 2.004002E5
247 248 -9.96996E4
248 247 -1.007006E5
248 248 2.004002E5
248 249 -9.96996E4
249 248 -1.007006E5
249 249 2.004002E5
249 250 -9.96996E4
250 249 -1.007006E5
250 250 2.004002E5
250 251 -9.96996E4
251 250 -1.007006E5
251 251 2.004002E5
251 252 -9.96996E4
252 251 -1.007006E5
252 252 2.004002E5
252 253 -9.96996E4
253 252 -1.007006E5
253 253 2.004002E5
253 254 -9.96996E4
254 253 -1.007006E5
254 254 2.004002E5
254 255 -9.96996E4
255 254 -1.007006E5
255 255 2.004002E5
255 256 -9.96996E4
256 255 -1.007006E5
256 256 2.004002E5
256 257 -9.96996E4
257 256 -1.007006E5
257 257 2.004002E5
257 258 -9.96996E4
258 257 -1.007006E5
258 258 2.004002E5
258 259 -9.96996E4
259 258 -1.007006E5
259 259 2.004002E5
259 260 -9.96996E4
260 259 -1.007006E5
260 260 2.004002E5
260 261 -9.96996E4
261 260 -1.007006E5
261 261 2.004002E5
261 262 -9.96996E4
262 261 -1.007006E5
262 262 2.004002E5
262 263 -9.96996E4
263 262 -1.007006E5
263 263 2.004002E5
263 264 -9.96996E4
264 263 -1.007006E5
264 264 2.004002E5
264 265 -9.96996E4
265 264 -1.007006E5
265 265 2.004002E5
265 266 -9.96996E4
266 265 -1.007006E5
266 266 2.004002E5
266 267 -9.96996E4
267 266 -1.007006E5
267 267 2.004002E5
267 268 -9.96996E4
268 267 -1.007006E5
268 268 2.004002E5
268 269 -9.96996E4
269 268 -1.007006E5
269 269 2.004002E5
269 270 -9.96996E4
270 269 -1.007006E5
270 270 2.004002E5
270 271 -9.96996E4
271 270 -1.007006E5
271 271 2.004002E5
271 272 -9.96996E4
272 271 -1.007006E5
272 272 2.004002E5
272 273 -9.96996E4
273 272 -1.007006E5
273 273 2.004002E5
273 274 -9.96996E4
274 273 -1.007006E5
274 274 2.004002E5
274 275 -9.96996E4
275 274 -1.007006E5
275 275 2.004002E5
275 276 -9.96996E4
276 275 -1.007006E5
276 276 2.004002E5
276 277 -9.96996E4
277 276 -1.007006E5
277 277 2.004002E5
277 278 -9.96996E4
278 277 -1.007006E5
278 278 2.004002E5
278 279 -9.96996E4
279 278 -1.007006E5
279 279 2.004002E5
279 280 -9.96996E4
280 279 -1.007006E5
280 280 2.004002E5
280 281 -9.96996E4
281 280 -1.007006E5
281 281 2.004002E5
281 282 -9.96996E4
282 281 -1.007006E5
282 282 2.004002E5
282 283 -9.96996E4
283 282 -1.007006E5
283 283 2.004002E5
283 284 -9.96996E4
284 283 -1.007006E5
284 284 2.004002E5
284 285 -9.96996E4
285 284 -1.007006E5
285 285 2.004002E5
285 286 -9.96996E4
286 285 -1.007006E5
286 286 2.004002E5
286 287 -9.96996E4
287 286 -1.007006E5
287 287 2.004002E5
287 288 -9.96996E4
288 287 -1.007006E5
288 288 2.004002E5
288 289 -9.96996E4
289 288 -1.007006E5
289 289 2.004002E5
289 290 -9.96996E4
290 289 -1.007006E5
290 290 2.004002E5
290 291 -9.96996E4
291 290 -1.007006E5
291 291 2.004002E5
291 292 -9.96996E4
292 291 -1.007006E5
292 292 2.004002E5
292 293 -9.96996E4
293 292 -1.007006E5
293 293 2.004002E5
293 294 -9.96996E4
294 293 -1.007006E5
294 294 2.004002E5
294 295 -9.96996E4
295 294 -1.007006E5
295 295 2.004002E5
295 296 -9.96996E4
296 295 -1.007006E5
296 296 2.004002E5
296 297 -9.96996E4
297 296 -1.007006E5
297 297 2.004002E5
297 298 -9.96996E4
298 297 -1.007006E5
298 298 2.004002E5
298 299 -9.96996E4
299 298 -1.007006E5
299 299 2.004002E5
299 300 -9.96996E4
300 299 -1.007006E5
300 300 2.004002E5
300 301 -9.96996E4
301 300 -1.007006E5
301 301 2.004002E5
301 302 -9.96996E4
302 301 -1.007006E5
302 302 2.004002E5
302 303 -9.96996E4
303 302 -1.007006E5
303 303 2.004002E5
303 304 -9.96996E4
304 303 -1.007006E5
304 304 2.004002E5
304 305 -9.96996E4
305 304 -1.007006E5
305 305 2.004002E5
305 306 -9.96996E4
306 305 -1.007006E5
306 306 2.004002E5
306 307 -9.96996E4
307 306 -1.007006E5
307 307 2.004002E5
307 308 -9.96996E4
308 307 -1.007006E5
308 308 2.004002E5
308 309 -9.96996E4
309 308 -1.007006E5
309 309 2.004002E5
309 310 -9.96996E4
310 309 -1.007006E5
310 310 2.004002E5
310 311 -9.96996E4
311 310 -1.007006E5
311 311 2.004002E5
311 312 -9.96996E4
312 311 -1.007006E5
312 312 2.004002E5
312 313 -9.96996E4
313 312 -1.007006E5
313 313 2.004002E5
313 314 -9.96996E4
314 313 -1.007006E5
314 314 2.004002E5
314 315 -9.96996E4
315 314 -1.007006E5
315 315 2.004002E5
315 316 -9.96996E4
316 315 -1.007006E5
316 316 2.004002E5
316 317 -9.96996E4
317 316 -1.007006E5
317 317 2.004002E5
317 318 -9.96996E4
318 317 -1.007006E5
318 318 2.004002E5
318 319 -9.96996E4
319 318 -1.007006E5
319 319 2.004002E5
319 320 -9.96996E4
320 319 -1.007006E5
320 320 2.004002E5
320 321 -9.96996E4
321 320 -1.007006E5
321 321 2.004002E5
321 322 -9.96996E4
322 321 -1.007006E5
322 322 2.004002E5
322 323 -9.96996E4
323 322 -1.007006E5
323 323 2.004002E5
323 324 -9.96996E4
324 323 -1.007006E5
324 324 2.004002E5
324 325 -9.96996E4
325 324 -1.007006E5
325 325 2.004002E5
325 326 -9.96996E4
326 325 -1.007006E5
326 326 2.004002E5
326 327 -9.96996E4
327 326 -1.007006E5
327 327 2.004002E5
327 328 -9.96996E4
328 327 -1.007006E5
328 328 2.004002E5
328 329 -9.96996E4
329 328 -1.007006E5
329 329 2.004002E5
329 330 -9.96996E4
330 329 -1.007006E5
330 330 2.004002E5
330 331 -9.96996E4
331 330 -1.007006E5
331 331 2.004002E5
331 332 -9.96996E4
332 331 -1.007006E5
332 332 2.004002E5
332 333 -9.96996E4
333 332 -1.007006E5
333 333 2.004002E5
333 334 -9.96996E4
334 333 -1.007006E5
334 334 2.004002E5
334 335 -9.96996E4
335 334 -1.007006E5
335 335 2.004002E5
335 336 -9.96996E4
336 335 -1.007006E5
336 336 2.004002E5
336 337 -9.96996E4
337 336 -1.007006E5
337 337 2.004002E5
337 338 -9.96996E4
338 337 -1.007006E5
338 338 2.004002E5
338 339 -9.96996E4
339 338 -1.007006E5
339 339 2.004002E5
339 340 -9.96996E4
340 339 -1.007006E5
340 340 2.004002E5
340 341 -9.96996E4
341 340 -1.007006E5
341 341 2.004002E5
341 342 -9.96996E4
342 341 -1.007006E5
342 342 2.004002E5
342 343 -9.96996E4
343 342 -1.007006E5
343 343 2.004002E5
343 344 -9.96996E4
344 343 -1.007006E5
344 344 2.004002E5
344 345 -9.96996E4
345 344 -1.007006E5
345 345 2.004002E5
345 346 -9.96996E4
346 345 -1.007006E5
346 346 2.004002E5
346 347 -9.96996E4
347 346 -1.007006E5
347 347 2.004002E5
347 348 -9.96996E4
348 347 -1.007006E5
348 348 2.004002E5
348 349 -9.96996E4
349 348 -1.007006E5
349 349 2.004002E5
349 350 -9.96996E4
350 349 -1.007006E5
350 350 2.004002E5
350 351 -9.96996E4
351 350 -1.007006E5
351 351 2.004002E5
351 352 -9.96996E4
352 351 -1.007006E5
352 352 2.004002E5
352 353 -9.96996E4
353 352 -1.007006E5
353 353 2.004002E5
353 354 -9.96996E4
354 353 -1.007006E5
354 354 2.004002E5
354 355 -9.96996E4
355 354 -1.007006E5
355 355 2.004002E5
355 356 -9.96996E4
356 355 -1.007006E5
356 356 2.004002E5
356 357 -9.96996E4
357 356 -1.007006E5
357 357 2.004002E5
357 358 -9.96996E4
358 357 -1.007006E5
358 358 2.004002E5
358 359 -9.96996E4
359 358 -1.007006E5
359 359 2.004002E5
359 360 -9.96996E4
360 359 -1.007006E5
360 360 2.004002E5
360 361 -9.96996E4
361 360 -1.007006E5
361 361 2.004002E5
361 362 -9.96996E4
362 361 -1.007006E5
362 362 2.004002E5
362 363 -9.96996E4
363 362 -1.007006E5
363 363 2.004002E5
363 364 -9.96996E4
364 363 -1.007006E5
364 364 2.004002E5
364 365 -9.96996E4
365 364 -1.007006E5
365 365 2.004002E5
365 366 -9.96996E4
366 365 -1.007006E5
366 366 2.004002E5
366 367 -9.96996E4
367 366 -1.007006E5
367 367 2.004002E5
367 368 -9.96996E4
368 367 -1.007006E5
368 368 2.004002E5
368 369 -9.96996E4
369 368 -1.007006E5
369 369 2.004002E5
369 370 -9.96996E4
370 369 -1.007006E5
370 370 2.004002E5
370 371 -9.96996E4
371 370 -1.007006E5
371 371 2.004002E5
371 372 -9.96996E4
372 371 -1.007006E5
372 372 2.004002E5
372 373 -9.96996E4
373 372 -1.007006E5
373 373 2.004002E5
373 374 -9.96996E4
374 373 -1.007006E5
374 374 2.004002E5
374 375 -9.96996E4
375 374 -1.007006E5
375 375 2.004002E5
375 376 -9.96996E4
376 375 -1.007006E5
376 376 2.004002E5
376 377 -9.96996E4
377 376 -1.007006E5
377 377 2.004002E5
377 378 -9.96996E4
378 377 -1.007006E5
378 378 2.004002E5
378 379 -9.96996E4
379 378 -1.007006E5
379 379 2.004002E5
379 380 -9.96996E4
380 379 -1.007006E5
380 380 2.004002E5
380 381 -9.96996E4
381 380 -1.007006E5
381 381 2.004002E5
381 382 -9.96996E4
382 381 -1.007006E5
382 382 2.004002E5
382 383 -9.96996E4
383 382 -1.007006E5
383 383 2.004002E5
383 384 -9.96996E4
384 383 -1.007006E5
384 384 2.004002E5
384 385 -9.96996E4
385 384 -1.007006E5
385 385 2.004002E5
385 386 -9.96996E4
386 385 -1.007006E5
386 386 2.004002E5
386 387 -9.96996E4
387 386 -1.007006E5
387 387 2.004002E5
387 388 -9.96996E4
388 387 -1.007006E5
388 388 2.004002E5
388 389 -9.96996E4
389 388 -1.007006E5
389 389 2.004002E5
389 390 -9.96996E4
390 389 -1.007006E5
390 390 2.004002E5
390 391 -9.96996E4
391 390 -1.007006E5
391 391 2.004002E5
391 392 -9.96996E4
392 391 -1.007006E5
392 392 2.004002E5
392 393 -9.96996E4
393 392 -1.007006E5
393 393 2.004002E5
393 394 -9.96996E4
394 393 -1.007006E5
394 394 2.004002E5
394 395 -9.96996E4
395 394 -1.007006E5
395 395 2.004002E5
395 396 -9.96996E4
396 395 -1.007006E5
396 396 2.004002E5
396 397 -9.96996E4
397 396 -1.007006E5
397 397 2.004002E5
397 398 -9.96996E4
398 397 -1.007006E5
398 398 2.004002E5
398 399 -9.96996E4
399 398 -1.007006E5
399 399 2.004002E5
399 400 -9.96996E4
400 399 -1.007006E5
400 400 2.004002E5
400 401 -9.96996E4
401 400 -1.007006E5
401 401 2.004002E5
401 402 -9.96996E4
402 401 -1.007006E5
402 402 2.004002E5
402 403 -9.96996E4
403 402 -1.007006E5
403 403 2.004002E5
403 404 -9.96996E4
404 403 -1.007006E5
404 404 2.004002E5
404 405 -9.96996E4
405 404 -1.007006E5
405 405 2.004002E5
405 406 -9.96996E4
406 405 -1.007006E5
406 406 2.004002E5
406 407 -9.96996E4
407 406 -1.007006E5
407 407 2.004002E5
407 408 -9.96996E4
408 407 -1.007006E5
408 408 2.004002E5
408 409 -9.96996E4
409 408 -1.007006E5
409 409 2.004002E5
409 410 -9.96996E4
410 409 -1.007006E5
410 410 2.004002E5
410 411 -9.96996E4
411 410 -1.007006E5
411 411 2.004002E5
411 412 -9.96996E4
412 411 -1.007006E5
412 412 2.004002E5
412 413 -9.96996E4
413 412 -1.007006E5
413 413 2.004002E5
413 414 -9.96996E4
414 413 -1.007006E5
414 414 2.004002E5
414 415 -9.96996E4
415 414 -1.007006E5
415 415 2.004002E5
415 416 -9.96996E4
416 415 -1.007006E5
416 416 2.004002E5
416 417 -9.96996E4
417 416 -1.007006E5
417 417 2.004002E5
417 418 -9.96996E4
418 417 -1.007006E5
418 418 2.004002E5
418 419 -9.96996E4
419 418 -1.007006E5
419 419 2.004002E5
419 420 -9.96996E4
420 419 -1.007006E5
420 420 2.004002E5
420 421 -9.96996E4
421 420 -1.007006E5
421 421 2.004002E5
421 422 -9.96996E4
422 421 -1.007006E5
422 422 2.004002E5
422 423 -9.96996E4
423 422 -1.007006E5
423 423 2.004002E5
423 424 -9.96996E4
424 423 -1.007006E5
424 424 2.004002E5
424 425 -9.96996E4
425 424 -1.007006E5
425 425 2.004002E5
425 426 -9.96996E4
426 425 -1.007006E5
426 426 2.004002E5
426 427 -9.96996E4
427 426 -1.007006E5
427 427 2.004002E5
427 428 -9.96996E4
428 427 -1.007006E5
428 428 2.004002E5
428 429 -9.96996E4
429 428 -1.007006E5
429 429 2.004002E5
429 430 -9.96996E4
430 429 -1.007006E5
430 430 2.004002E5
430 431 -9.96996E4
431 430 -1.007006E5
431 431 2.004002E5
431 432 -9.96996E4
432 431 -1.007006E5
432 432 2.004002E5
432 433 -9.96996E4
433 432 -1.007006E5
433 433 2.004002E5
433 434 -9.96996E4
434 433 -1.007006E5
434 434 2.004002E5
434 435 -9.96996E4
435 434 -1.007006E5
435 435 2.004002E5
435 436 -9.96996E4
436 435 -1.007006E5
436 436 2.004002E5
436 437 -9.96996E4
437 436 -1.007006E5
437 437 2.004002E5
437 438 -9.96996E4
438 437 -1.007006E5
438 438 2.004002E5
438 439 -9.96996E4
439 438 -1.007006E5
439 439 2.004002E5
439 440 -9.96996E4
440 439 -1.007006E5
440 440 2.004002E5
440 441 -9.96996E4
441 440 -1.007006E5
441 441 2.004002E5
441 442 -9.96996E4
442 441 -1.007006E5
442 442 2.004002E5
442 443 -9.96996E4
443 442 -1.007006E5
443 443 2.004002E5
443 444 -9.96996E4
444 443 -1.007006E5
444 444 2.004002E5
444 445 -9.96996E4
445 444 -1.007006E5
445 445 2.004002E5
445 446 -9.96996E4
446 445 -1.007006E5
446 446 2.004002E5
446 447 -9.96996E4
447 446 -1.007006E5
447 447 2.004002E5
447 448 -9.96996E4
448 447 -1.007006E5
448 448 2.004002E5
448 449 -9.96996E4
449 448 -1.007006E5
449 449 2.004002E5
449 450 -9.96996E4
450 449 -1.007006E5
450 450 2.004002E5
450 451 -9.96996E4
451 450 -1.007006E5
451 451 2.004002E5
451 452 -9.96996E4
452 451 -1.007006E5
452 452 2.004002E5
452 453 -9.96996E4
453 452 -1.007006E5
453 453 2.004002E5
453 454 -9.96996E4
454 453 -1.007006E5
454 454 2.004002E5
454 455 -9.96996E4
455 454 -1.007006E5
455 455 2.004002E5
455 456 -9.96996E4
456 455 -1.007006E5
456 456 2.004002E5
456 457 -9.96996E4
457 456 -1.007006E5
457 457 2.004002E5
457 458 -9.96996E4
458 457 -1.007006E5
458 458 2.004002E5
458 459 -9.96996E4
459 458 -1.007006E5
459 459 2.004002E5
459 460 -9.96996E4
460 459 -1.007006E5
460 460 2.004002E5
460 461 -9.96996E4
461 460 -1.007006E5
461 461 2.004002E5
461 462 -9.96996E4
462 461 -1.007006E5
462 462 2.004002E5
462 463 -9.96996E4
463 462 -1.007006E5
463 463 2.004002E5
463 464 -9.96996E4
464 463 -1.007006E5
464 464 2.004002E5
464 465 -9.96996E4
465 464 -1.007006E5
465 465 2.004002E5
465 466 -9.96996E4
466 465 -1.007006E5
466 466 2.004002E5
466 467 -9.96996E4
467 466 -1.007006E5
467 467 2.004002E5
467 468 -9.96996E4
468 467 -1.007006E5
468 468 2.004002E5
468 469 -9.96996E4
469 468 -1.007006E5
469 469 2.004002E5
469 470 -9.96996E4
470 469 -1.007006E5
470 470 2.004002E5
470 471 -9.96996E4
471 470 -1.007006E5
471 471 2.004002E5
471 472 -9.96996E4
472 471 -1.007006E5
472 472 2.004002E5
472 473 -9.96996E4
473 472 -1.007006E5
473 473 2.004002E5
473 474 -9.96996E4
474 473 -1.007006E5
474 474 2.004002E5
474 475 -9.96996E4
475 474 -1.007006E5
475 475 2.004002E5
475 476 -9.96996E4
476 475 -1.007006E5
476 476 2.004002E5
476 477 -9.96996E4
477 476 -1.007006E5
477 477 2.004002E5
477 478 -9.96996E4
478 477 -1.007006E5
478 478 2.004002E5
478 479 -9.96996E4
479 478 -1.007006E5
479 479 2.004002E5
479 480 -9.96996E4
480 479 -1.007006E5
480 480 2.004002E5
480 481 -9.96996E4
481 480 -1.007006E5
481 481 2.004002E5
481 482 -9.96996E4
482 481 -1.007006E5
482 482 2.004002E5
482 483 -9.96996E4
483 482 -1.007006E5
483 483 2.004002E5
483 484 -9.96996E4
484 483 -1.007006E5
484 484 2.004002E5
484 485 -9.96996E4
485 484 -1.007006E5
485 485 2.004002E5
485 486 -9.96996E4
486 485 -1.007006E5
486 486 2.004002E5
486 487 -9.96996E4
487 486 -1.007006E5
487 487 2.004002E5
487 488 -9.96996E4
488 487 -1.007006E5
488 488 2.004002E5
488 489 -9.96996E4
489 488 -1.007006E5
489 489 2.004002E5
489 490 -9.96996E4
490 489 -1.007006E5
490 490 2.004002E5
490 491 -9.96996E4
491 490 -1.007006E5
491 491 2.004002E5
491 492 -9.96996E4
492 491 -1.007006E5
492 492 2.004002E5
492 493 -9.96996E4
493 492 -1.007006E5
493 493 2.004002E5
493 494 -9.96996E4
494 493 -1.007006E5
494 494 2.004002E5
494 495 -9.96996E4
495 494 -1.007006E5
495 495 2.004002E5
495 496 -9.96996E4
496 495 -1.007006E5
496 496 2.004002E5
496 497 -9.96996E4
497 496 -1.007006E5
497 497 2.004002E5
497 498 -9.96996E4
498 497 -1.007006E5
498 498 2.004002E5
498 499 -9.96996E4
499 498 -1.007006E5
499 499 2.004002E5
499 500 -9.96996E4
500 499 -1.007006E5
500 500 2.004002E5
500 501 -9.96996E4
501 500 -1.007006E5
501 501 2.004002E5
501 502 -9.96996E4
502 501 -1.007006E5
502 502 2.004002E5
502 503 -9.96996E4
503 502 -1.007006E5
503 503 2.004002E5
503 504 -9.96996E4
504 503 -1.007006E5
504 504 2.004002E5
504 505 -9.96996E4
505 504 -1.007006E5
505 505 2.004002E5
505 506 -9.96996E4
506 505 -1.007006E5
506 506 2.004002E5
506 507 -9.96996E4
507 506 -1.007006E5
507 507 2.004002E5
507 508 -9.96996E4
508 507 -1.007006E5
508 508 2.004002E5
508 509 -9.96996E4
509 508 -1.007006E5
509 509 2.004002E5
509 510 -9.96996E4
510 509 -1.007006E5
510 510 2.004002E5
510 511 -9.96996E4
511 510 -1.007006E5
511 511 2.004002E5
511 512 -9.96996E4
512 511 -1.007006E5
512 512 2.004002E5
512 513 -9.96996E4
513 512 -1.007006E5
513 513 2.004002E5
513 514 -9.96996E4
514 513 -1.007006E5
514 514 2.004002E5
514 515 -9.96996E4
515 514 -1.007006E5
515 515 2.004002E5
515 516 -9.96996E4
516 515 -1.007006E5
516 516 2.004002E5
516 517 -9.96996E4
517 516 -1.007006E5
517 517 2.004002E5
517 518 -9.96996E4
518 517 -1.007006E5
518 518 2.004002E5
518 519 -9.96996E4
519 518 -1.007006E5
519 519 2.004002E5
519 520 -9.96996E4
520 519 -1.007006E5
520 520 2.004002E5
520 521 -9.96996E4
521 520 -1.007006E5
521 521 2.004002E5
521 522 -9.96996E4
522 521 -1.007006E5
522 522 2.004002E5
522 523 -9.96996E4
523 522 -1.007006E5
523 523 2.004002E5
523 524 -9.96996E4
524 523 -1.007006E5
524 524 2.004002E5
524 525 -9.96996E4
525 524 -1.007006E5
525 525 2.004002E5
525 526 -9.96996E4
526 525 -1.007006E5
526 526 2.004002E5
526 527 -9.96996E4
527 526 -1.007006E5
527 527 2.004002E5
527 528 -9.96996E4
528 527 -1.007006E5
528 528 2.004002E5
528 529 -9.96996E4
529 528 -1.007006E5
529 529 2.004002E5
529 530 -9.96996E4
530 529 -1.007006E5
530 530 2.004002E5
530 531 -9.96996E4
531 530 -1.007006E5
531 531 2.004002E5
531 532 -9.96996E4
532 531 -1.007006E5
532 532 2.004002E5
532 533 -9.96996E4
533 532 -1.007006E5
533 533 2.004002E5
533 534 -9.96996E4
534 533 -1.007006E5
534 534 2.004002E5
534 535 -9.96996E4
535 534 -1.007006E5
535 535 2.004002E5
535 536 -9.96996E4
536 535 -1.007006E5
536 536 2.004002E5
536 537 -9.96996E4
537 536 -1.007006E5
537 537 2.004002E5
537 538 -9.96996E4
538 537 -1.007006E5
538 538 2.004002E5
538 539 -9.96996E4
539 538 -1.007006E5
539 539 2.004002E5
539 540 -9.96996E4
540 539 -1.007006E5
540 540 2.004002E5
540 541 -9.96996E4
541 540 -1.007006E5
541 541 2.004002E5
541 542 -9.96996E4
542 541 -1.007006E5
542 542 2.004002E5
542 543 -9.96996E4
543 542 -1.007006E5
543 543 2.004002E5
543 544 -9.96996E4
544 543 -1.007006E5
544 544 2.004002E5
544 545 -9.96996E4
545 544 -1.007006E5
545 545 2.004002E5
545 546 -9.96996E4
546 545 -1.007006E5
546 546 2.004002E5
546 547 -9.96996E4
547 546 -1.007006E5
547 547 2.004002E5
547 548 -9.96996E4
548 547 -1.007006E5
548 548 2.004002E5
548 549 -9.96996E4
549 548 -1.007006E5
549 549 2.004002E5
549 550 -9.96996E4
550 549 -1.007006E5
550 550 2.004002E5
550 551 -9.96996E4
551 550 -1.007006E5
551 551 2.004002E5
551 552 -9.96996E4
552 551 -1.007006E5
552 552 2.004002E5
552 553 -9.96996E4
553 552 -1.007006E5
553 553 2.004002E5
553 554 -9.96996E4
554 553 -1.007006E5
554 554 2.004002E5
554 555 -9.96996E4
555 554 -1.007006E5
555 555 2.004002E5
555 556 -9.96996E4
556 555 -1.007006E5
556 556 2.004002E5
556 557 -9.96996E4
557 556 -1.007006E5
557 557 2.004002E5
557 558 -9.96996E4
558 557 -1.007006E5
558 558 2.004002E5
558 559 -9.96996E4
559 558 -1.007006E5
559 559 2.004002E5
559 560 -9.96996E4
560 559 -1.007006E5
560 560 2.004002E5
560 561 -9.96996E4
561 560 -1.007006E5
561 561 2.004002E5
561 562 -9.96996E4
562 561 -1.007006E5
562 562 2.004002E5
562 563 -9.96996E4
563 562 -1.007006E5
563 563 2.004002E5
563 564 -9.96996E4
564 563 -1.007006E5
564 564 2.004002E5
564 565 -9.96996E4
565 564 -1.007006E5
565 565 2.004002E5
565 566 -9.96996E4
566 565 -1.007006E5
566 566 2.004002E5
566 567 -9.96996E4
567 566 -1.007006E5
567 567 2.004002E5
567 568 -9.96996E4
568 567 -1.007006E5
568 568 2.004002E5
568 569 -9.96996E4
569 568 -1.007006E5
569 569 2.004002E5
569 570 -9.96996E4
570 569 -1.007006E5
570 570 2.004002E5
570 571 -9.96996E4
571 570 -1.007006E5
571 571 2.004002E5
571 572 -9.96996E4
572 571 -1.007006E5
572 572 2.004002E5
572 573 -9.96996E4
573 572 -1.007006E5
573 573 2.004002E5
573 574 -9.96996E4
574 573 -1.007006E5
574 574 2.004002E5
574 575 -9.96996E4
575 574 -1.007006E5
575 575 2.004002E5
575 576 -9.96996E4
576 575 -1.007006E5
576 576 2.004002E5
576 577 -9.96996E4
577 576 -1.007006E5
577 577 2.004002E5
577 578 -9.96996E4
578 577 -1.007006E5
578 578 2.004002E5
578 579 -9.96996E4
579 578 -1.007006E5
579 579 2.004002E5
579 580 -9.96996E4
580 579 -1.007006E5
580 580 2.004002E5
580 581 -9.96996E4
581 580 -1.007006E5
581 581 2.004002E5
581 582 -9.96996E4
582 581 -1.007006E5
582 582 2.004002E5
582 583 -9.96996E4
583 582 -1.007006E5
583 583 2.004002E5
583 584 -9.96996E4
584 583 -1.007006E5
584 584 2.004002E5
584 585 -9.96996E4
585 584 -1.007006E5
585 585 2.004002E5
585 586 -9.96996E4
586 585 -1.007006E5
586 586 2.004002E5
586 587 -9.96996E4
587 586 -1.007006E5
587 587 2.004002E5
587 588 -9.96996E4
588 587 -1.007006E5
588 588 2.004002E5
588 589 -9.96996E4
589 588 -1.007006E5
589 589 2.004002E5
589 590 -9.96996E4
590 589 -1.007006E5
590 590 2.004002E5
590 591 -9.96996E4
591 590 -1.007006E5
591 591 2.004002E5
591 592 -9.96996E4
592 591 -1.007006E5
592 592 2.004002E5
592 593 -9.96996E4
593 592 -1.007006E5
593 593 2.004002E5
593 594 -9.96996E4
594 593 -1.007006E5
594 594 2.004002E5
594 595 -9.96996E4
595 594 -1.007006E5
595 595 2.004002E5
595 596 -9.96996E4
596 595 -1.007006E5
596 596 2.004002E5
596 597 -9.96996E4
597 596 -1.007006E5
597 597 2.004002E5
597 598 -9.96996E4
598 597 -1.007006E5
598 598 2.004002E5
598 599 -9.96996E4
599 598 -1.007006E5
599 599 2.004002E5
599 600 -9.96996E4
600 599 -1.007006E5
600 600 2.004002E5
600 601 -9.96996E4
601 600 -1.007006E5
601 601 2.004002E5
601 602 -9.96996E4
602 601 -1.007006E5
602 602 2.004002E5
602 603 -9.96996E4
603 602 -1.007006E5
603 603 2.004002E5
603 604 -9.96996E4
604 603 -1.007006E5
604 604 2.004002E5
604 605 -9.96996E4
605 604 -1.007006E5
605 605 2.004002E5
605 606 -9.96996E4
606 605 -1.007006E5
606 606 2.004002E5
606 607 -9.96996E4
607 606 -1.007006E5
607 607 2.004002E5
607 608 -9.96996E4
608 607 -1.007006E5
608 608 2.004002E5
608 609 -9.96996E4
609 608 -1.007006E5
609 609 2.004002E5
609 610 -9.96996E4
610 609 -1.007006E5
610 610 2.004002E5
610 611 -9.96996E4
611 610 -1.007006E5
611 611 2.004002E5
611 612 -9.96996E4
612 611 -1.007006E5
612 612 2.004002E5
612 613 -9.96996E4
613 612 -1.007006E5
613 613 2.004002E5
613 614 -9.96996E4
614 613 -1.007006E5
614 614 2.004002E5
614 615 -9.96996E4
615 614 -1.007006E5
615 615 2.004002E5
615 616 -9.96996E4
616 615 -1.007006E5
616 616 2.004002E5
616 617 -9.96996E4
617 616 -1.007006E5
617 617 2.004002E5
617 618 -9.96996E4
618 617 -1.007006E5
618 618 2.004002E5
618 619 -9.96996E4
619 618 -1.007006E5
619 619 2.004002E5
619 620 -9.96996E4
620 619 -1.007006E5
620 620 2.004002E5
620 621 -9.96996E4
621 620 -1.007006E5
621 621 2.004002E5
621 622 -9.96996E4
622 621 -1.007006E5
622 622 2.004002E5
622 623 -9.96996E4
623 622 -1.007006E5
623 623 2.004002E5
623 624 -9.96996E4
624 623 -1.007006E5
624 624 2.004002E5
624 625 -9.96996E4
625 624 -1.007006E5
625 625 2.004002E5
625 626 -9.96996E4
626 625 -1.007006E5
626 626 2.004002E5
626 627 -9.96996E4
627 626 -1.007006E5
627 627 2.004002E5
627 628 -9.96996E4
628 627 -1.007006E5
628 628 2.004002E5
628 629 -9.96996E4
629 628 -1.007006E5
629 629 2.004002E5
629 630 -9.96996E4
630 629 -1.007006E5
630 630 2.004002E5
630 631 -9.96996E4
631 630 -1.007006E5
631 631 2.004002E5
631 632 -9.96996E4
632 631 -1.007006E5
632 632 2.004002E5
632 633 -9.96996E4
633 632 -1.007006E5
633 633 2.004002E5
633 634 -9.96996E4
634 633 -1.007006E5
634 634 2.004002E5
634 635 -9.96996E4
635 634 -1.007006E5
635 635 2.004002E5
635 636 -9.96996E4
636 635 -1.007006E5
636 636 2.004002E5
636 637 -9.96996E4
637 636 -1.007006E5
637 637 2.004002E5
637 638 -9.96996E4
638 637 -1.007006E5
638 638 2.004002E5
638 639 -9.96996E4
639 638 -1.007006E5
639 639 2.004002E5
639 640 -9.96996E4
640 639 -1.007006E5
640 640 2.004002E5
640 641 -9.96996E4
641 640 -1.007006E5
641 641 2.004002E5
641 642 -9.96996E4
642 641 -1.007006E5
642 642 2.004002E5
642 643 -9.96996E4
643 642 -1.007006E5
643 643 2.004002E5
643 644 -9.96996E4
644 643 -1.007006E5
644 644 2.004002E5
644 645 -9.96996E4
645 644 -1.007006E5
645 645 2.004002E5
645 646 -9.96996E4
646 645 -1.007006E5
646 646 2.004002E5
646 647 -9.96996E4
647 646 -1.007006E5
647 647 2.004002E5
647 648 -9.96996E4
648 647 -1.007006E5
648 648 2.004002E5
648 649 -9.96996E4
649 648 -1.007006E5
649 649 2.004002E5
649 650 -9.96996E4
650 649 -1.007006E5
650 650 2.004002E5
650 651 -9.96996E4
651 650 -1.007006E5
651 651 2.004002E5
651 652 -9.96996E4
652 651 -1.007006E5
652 652 2.004002E5
652 653 -9.96996E4
653 652 -1.007006E5
653 653 2.004002E5
653 654 -9.96996E4
654 653 -1.007006E5
654 654 2.004002E5
654 655 -9.96996E4
655 654 -1.007006E5
655 655 2.004002E5
655 656 -9.96996E4
656 655 -1.007006E5
656 656 2.004002E5
656 657 -9.96996E4
657 656 -1.007006E5
657 657 2.004002E5
657 658 -9.96996E4
658 657 -1.007006E5
658 658 2.004002E5
658 659 -9.96996E4
659 658 -1.007006E5
659 659 2.004002E5
659 660 -9.96996E4
660 659 -1.007006E5
660 660 2.004002E5
660 661 -9.96996E4
661 660 -1.007006E5
661 661 2.004002E5
661 662 -9.96996E4
662 661 -1.007006E5
662 662 2.004002E5
662 663 -9.96996E4
663 662 -1.007006E5
663 663 2.004002E5
663 664 -9.96996E4
664 663 -1.007006E5
664 664 2.004002E5
664 665 -9.96996E4
665 664 -1.007006E5
665 665 2.004002E5
665 666 -9.96996E4
666 665 -1.007006E5
666 666 2.004002E5
666 667 -9.96996E4
667 666 -1.007006E5
667 667 2.004002E5
667 668 -9.96996E4
668 667 -1.007006E5
668 668 2.004002E5
668 669 -9.96996E4
669 668 -1.007006E5
669 669 2.004002E5
669 670 -9.96996E4
670 669 -1.007006E5
670 670 2.004002E5
670 671 -9.96996E4
671 670 -1.007006E5
671 671 2.004002E5
671 672 -9.96996E4
672 671 -1.007006E5
672 672 2.004002E5
672 673 -9.96996E4
673 672 -1.007006E5
673 673 2.004002E5
673 674 -9.96996E4
674 673 -1.007006E5
674 674 2.004002E5
674 675 -9.96996E4
675 674 -1.007006E5
675 675 2.004002E5
675 676 -9.96996E4
676 675 -1.007006E5
676 676 2.004002E5
676 677 -9.96996E4
677 676 -1.007006E5
677 677 2.004002E5
677 678 -9.96996E4
678 677 -1.007006E5
678 678 2.004002E5
678 679 -9.96996E4
679 678 -1.007006E5
679 679 2.004002E5
679 680 -9.96996E4
680 679 -1.007006E5
680 680 2.004002E5
680 681 -9.96996E4
681 680 -1.007006E5
681 681 2.004002E5
681 682 -9.96996E4
682 681 -1.007006E5
682 682 2.004002E5
682 683 -9.96996E4
683 682 -1.007006E5
683 683 2.004002E5
683 684 -9.96996E4
684 683 -1.007006E5
684 684 2.004002E5
684 685 -9.96996E4
685 684 -1.007006E5
685 685 2.004002E5
685 686 -9.96996E4
686 685 -1.007006E5
686 686 2.004002E5
686 687 -9.96996E4
687 686 -1.007006E5
687 687 2.004002E5
687 688 -9.96996E4
688 687 -1.007006E5
688 688 2.004002E5
688 689 -9.96996E4
689 688 -1.007006E5
689 689 2.004002E5
689 690 -9.96996E4
690 689 -1.007006E5
690 690 2.004002E5
690 691 -9.96996E4
691 690 -1.007006E5
691 691 2.004002E5
691 692 -9.96996E4
692 691 -1.007006E5
692 692 2.004002E5
692 693 -9.96996E4
693 692 -1.007006E5
693 693 2.004002E5
693 694 -9.96996E4
694 693 -1.007006E5
694 694 2.004002E5
694 695 -9.96996E4
695 694 -1.007006E5
695 695 2.004002E5
695 696 -9.96996E4
696 695 -1.007006E5
696 696 2.004002E5
696 697 -9.96996E4
697 696 -1.007006E5
697 697 2.004002E5
697 698 -9.96996E4
698 697 -1.007006E5
698 698 2.004002E5
698 699 -9.96996E4
699 698 -1.007006E5
699 699 2.004002E5
699 700 -9.96996E4
700 699 -1.007006E5
700 700 2.004002E5
700 701 -9.96996E4
701 700 -1.007006E5
701 701 2.004002E5
701 702 -9.96996E4
702 701 -1.007006E5
702 702 2.004002E5
702 703 -9.96996E4
703 702 -1.007006E5
703 703 2.004002E5
703 704 -9.96996E4
704 703 -1.007006E5
704 704 2.004002E5
704 705 -9.96996E4
705 704 -1.007006E5
705 705 2.004002E5
705 706 -9.96996E4
706 705 -1.007006E5
706 706 2.004002E5
706 707 -9.96996E4
707 706 -1.007006E5
707 707 2.004002E5
707 708 -9.96996E4
708 707 -1.007006E5
708 708 2.004002E5
708 709 -9.96996E4
709 708 -1.007006E5
709 709 2.004002E5
709 710 -9.96996E4
710 709 -1.007006E5
710 710 2.004002E5
710 711 -9.96996E4
711 710 -1.007006E5
711 711 2.004002E5
711 712 -9.96996E4
712 711 -1.007006E5
712 712 2.004002E5
712 713 -9.96996E4
713 712 -1.007006E5
713 713 2.004002E5
713 714 -9.96996E4
714 713 -1.007006E5
714 714 2.004002E5
714 715 -9.96996E4
715 714 -1.007006E5
715 715 2.004002E5
715 716 -9.96996E4
716 715 -1.007006E5
716 716 2.004002E5
716 717 -9.96996E4
717 716 -1.007006E5
717 717 2.004002E5
717 718 -9.96996E4
718 717 -1.007006E5
718 718 2.004002E5
718 719 -9.96996E4
719 718 -1.007006E5
719 719 2.004002E5
719 720 -9.96996E4
720 719 -1.007006E5
720 720 2.004002E5
720 721 -9.96996E4
721 720 -1.007006E5
721 721 2.004002E5
721 722 -9.96996E4
722 721 -1.007006E5
722 722 2.004002E5
722 723 -9.96996E4
723 722 -1.007006E5
723 723 2.004002E5
723 724 -9.96996E4
724 723 -1.007006E5
724 724 2.004002E5
724 725 -9.96996E4
725 724 -1.007006E5
725 725 2.004002E5
725 726 -9.96996E4
726 725 -1.007006E5
726 726 2.004002E5
726 727 -9.96996E4
727 726 -1.007006E5
727 727 2.004002E5
727 728 -9.96996E4
728 727 -1.007006E5
728 728 2.004002E5
728 729 -9.96996E4
729 728 -1.007006E5
729 729 2.004002E5
729 730 -9.96996E4
730 729 -1.007006E5
730 730 2.004002E5
730 731 -9.96996E4
731 730 -1.007006E5
731 731 2.004002E5
731 732 -9.96996E4
732 731 -1.007006E5
732 732 2.004002E5
732 733 -9.96996E4
733 732 -1.007006E5
733 733 2.004002E5
733 734 -9.96996E4
734 733 -1.007006E5
734 734 2.004002E5
734 735 -9.96996E4
735 734 -1.007006E5
735 735 2.004002E5
735 736 -9.96996E4
736 735 -1.007006E5
736 736 2.004002E5
736 737 -9.96996E4
737 736 -1.007006E5
737 737 2.004002E5
737 738 -9.96996E4
738 737 -1.007006E5
738 738 2.004002E5
738 739 -9.96996E4
739 738 -1.007006E5
739 739 2.004002E5
739 740 -9.96996E4
740 739 -1.007006E5
740 740 2.004002E5
740 741 -9.96996E4
741 740 -1.007006E5
741 741 2.004002E5
741 742 -9.96996E4
742 741 -1.007006E5
742 742 2.004002E5
742 743 -9.96996E4
743 742 -1.007006E5
743 743 2.004002E5
743 744 -9.96996E4
744 743 -1.007006E5
744 744 2.004002E5
744 745 -9.96996E4
745 744 -1.007006E5
745 745 2.004002E5
745 746 -9.96996E4
746 745 -1.007006E5
746 746 2.004002E5
746 747 -9.96996E4
747 746 -1.007006E5
747 747 2.004002E5
747 748 -9.96996E4
748 747 -1.007006E5
748 748 2.004002E5
748 749 -9.96996E4
749 748 -1.007006E5
749 749 2.004002E5
749 750 -9.96996E4
750 749 -1.007006E5
750 750 2.004002E5
750 751 -9.96996E4
751 750 -1.007006E5
751 751 2.004002E5
751 752 -9.96996E4
752 751 -1.007006E5
752 752 2.004002E5
752 753 -9.96996E4
753 752 -1.007006E5
753 753 2.004002E5
753 754 -9.96996E4
754 753 -1.007006E5
754 754 2.004002E5
754 755 -9.96996E4
755 754 -1.007006E5
755 755 2.004002E5
755 756 -9.96996E4
756 755 -1.007006E5
756 756 2.004002E5
756 757 -9.96996E4
757 756 -1.007006E5
757 757 2.004002E5
757 758 -9.96996E4
758 757 -1.007006E5
758 758 2.004002E5
758 759 -9.96996E4
759 758 -1.007006E5
759 759 2.004002E5
759 760 -9.96996E4
760 759 -1.007006E5
760 760 2.004002E5
760 761 -9.96996E4
761 760 -1.007006E5
761 761 2.004002E5
761 762 -9.96996E4
762 761 -1.007006E5
762 762 2.004002E5
762 763 -9.96996E4
763 762 -1.007006E5
763 763 2.004002E5
763 764 -9.96996E4
764 763 -1.007006E5
764 764 2.004002E5
764 765 -9.96996E4
765 764 -1.007006E5
765 765 2.004002E5
765 766 -9.96996E4
766 765 -1.007006E5
766 766 2.004002E5
766 767 -9.96996E4
767 766 -1.007006E5
767 767 2.004002E5
767 768 -9.96996E4
768 767 -1.007006E5
768 768 2.004002E5
768 769 -9.96996E4
769 768 -1.007006E5
769 769 2.004002E5
769 770 -9.96996E4
770 769 -1.007006E5
770 770 2.004002E5
770 771 -9.96996E4
771 770 -1.007006E5
771 771 2.004002E5
771 772 -9.96996E4
772 771 -1.007006E5
772 772 2.004002E5
772 773 -9.96996E4
773 772 -1.007006E5
773 773 2.004002E5
773 774 -9.96996E4
774 773 -1.007006E5
774 774 2.004002E5
774 775 -9.96996E4
775 774 -1.007006E5
775 775 2.004002E5
775 776 -9.96996E4
776 775 -1.007006E5
776 776 2.004002E5
776 777 -9.96996E4
777 776 -1.007006E5
777 777 2.004002E5
777 778 -9.96996E4
778 777 -1.007006E5
778 778 2.004002E5
778 779 -9.96996E4
779 778 -1.007006E5
779 779 2.004002E5
779 780 -9.96996E4
780 779 -1.007006E5
780 780 2.004002E5
780 781 -9.96996E4
781 780 -1.007006E5
781 781 2.004002E5
781 782 -9.96996E4
782 781 -1.007006E5
782 782 2.004002E5
782 783 -9.96996E4
783 782 -1.007006E5
783 783 2.004002E5
783 784 -9.96996E4
784 783 -1.007006E5
784 784 2.004002E5
784 785 -9.96996E4
785 784 -1.007006E5
785 785 2.004002E5
785 786 -9.96996E4
786 785 -1.007006E5
786 786 2.004002E5
786 787 -9.96996E4
787 786 -1.007006E5
787 787 2.004002E5
787 788 -9.96996E4
788 787 -1.007006E5
788 788 2.004002E5
788 789 -9.96996E4
789 788 -1.007006E5
789 789 2.004002E5
789 790 -9.96996E4
790 789 -1.007006E5
790 790 2.004002E5
790 791 -9.96996E4
791 790 -1.007006E5
791 791 2.004002E5
791 792 -9.96996E4
792 791 -1.007006E5
792 792 2.004002E5
792 793 -9.96996E4
793 792 -1.007006E5
793 793 2.004002E5
793 794 -9.96996E4
794 793 -1.007006E5
794 794 2.004002E5
794 795 -9.96996E4
795 794 -1.007006E5
795 795 2.004002E5
795 796 -9.96996E4
796 795 -1.007006E5
796 796 2.004002E5
796 797 -9.96996E4
797 796 -1.007006E5
797 797 2.004002E5
797 798 -9.96996E4
798 797 -1.007006E5
798 798 2.004002E5
798 799 -9.96996E4
799 798 -1.007006E5
799 799 2.004002E5
799 800 -9.96996E4
800 799 -1.007006E5
800 800 2.004002E5
800 801 -9.96996E4
801 800 -1.007006E5
801 801 2.004002E5
801 802 -9.96996E4
802 801 -1.007006E5
802 802 2.004002E5
802 803 -9.96996E4
803 802 -1.007006E5
803 803 2.004002E5
803 804 -9.96996E4
804 803 -1.007006E5
804 804 2.004002E5
804 805 -9.96996E4
805 804 -1.007006E5
805 805 2.004002E5
805 806 -9.96996E4
806 805 -1.007006E5
806 806 2.004002E5
806 807 -9.96996E4
807 806 -1.007006E5
807 807 2.004002E5
807 808 -9.96996E4
808 807 -1.007006E5
808 808 2.004002E5
808 809 -9.96996E4
809 808 -1.007006E5
809 809 2.004002E5
809 810 -9.96996E4
810 809 -1.007006E5
810 810 2.004002E5
810 811 -9.96996E4
811 810 -1.007006E5
811 811 2.004002E5
811 812 -9.96996E4
812 811 -1.007006E5
812 812 2.004002E5
812 813 -9.96996E4
813 812 -1.007006E5
813 813 2.004002E5
813 814 -9.96996E4
814 813 -1.007006E5
814 814 2.004002E5
814 815 -9.96996E4
815 814 -1.007006E5
815 815 2.004002E5
815 816 -9.96996E4
816 815 -1.007006E5
816 816 2.004002E5
816 817 -9.96996E4
817 816 -1.007006E5
817 817 2.004002E5
817 818 -9.96996E4
818 817 -1.007006E5
818 818 2.004002E5
818 819 -9.96996E4
819 818 -1.007006E5
819 819 2.004002E5
819 820 -9.96996E4
820 819 -1.007006E5
820 820 2.004002E5
820 821 -9.96996E4
821 820 -1.007006E5
821 821 2.004002E5
821 822 -9.96996E4
822 821 -1.007006E5
822 822 2.004002E5
822 823 -9.96996E4
823 822 -1.007006E5
823 823 2.004002E5
823 824 -9.96996E4
824 823 -1.007006E5
824 824 2.004002E5
824 825 -9.96996E4
825 824 -1.007006E5
825 825 2.004002E5
825 826 -9.96996E4
826 825 -1.007006E5
826 826 2.004002E5
826 827 -9.96996E4
827 826 -1.007006E5
827 827 2.004002E5
827 828 -9.96996E4
828 827 -1.007006E5
828 828 2.004002E5
828 829 -9.96996E4
829 828 -1.007006E5
829 829 2.004002E5
829 830 -9.96996E4
830 829 -1.007006E5
830 830 2.004002E5
830 831 -9.96996E4
831 830 -1.007006E5
831 831 2.004002E5
831 832 -9.96996E4
832 831 -1.007006E5
832 832 2.004002E5
832 833 -9.96996E4
833 832 -1.007006E5
833 833 2.004002E5
833 834 -9.96996E4
834 833 -1.007006E5
834 834 2.004002E5
834 835 -9.96996E4
835 834 -1.007006E5
835 835 2.004002E5
835 836 -9.96996E4
836 835 -1.007006E5
836 836 2.004002E5
836 837 -9.96996E4
837 836 -1.007006E5
837 837 2.004002E5
837 838 -9.96996E4
838 837 -1.007006E5
838 838 2.004002E5
838 839 -9.96996E4
839 838 -1.007006E5
839 839 2.004002E5
839 840 -9.96996E4
840 839 -1.007006E5
840 840 2.004002E5
840 841 -9.96996E4
841 840 -1.007006E5
841 841 2.004002E5
841 842 -9.96996E4
842 841 -1.007006E5
842 842 2.004002E5
842 843 -9.96996E4
843 842 -1.007006E5
843 843 2.004002E5
843 844 -9.96996E4
844 843 -1.007006E5
844 844 2.004002E5
844 845 -9.96996E4
845 844 -1.007006E5
845 845 2.004002E5
845 846 -9.96996E4
846 845 -1.007006E5
846 846 2.004002E5
846 847 -9.96996E4
847 846 -1.007006E5
847 847 2.004002E5
847 848 -9.96996E4
848 847 -1.007006E5
848 848 2.004002E5
848 849 -9.96996E4
849 848 -1.007006E5
849 849 2.004002E5
849 850 -9.96996E4
850 849 -1.007006E5
850 850 2.004002E5
850 851 -9.96996E4
851 850 -1.007006E5
851 851 2.004002E5
851 852 -9.96996E4
852 851 -1.007006E5
852 852 2.004002E5
852 853 -9.96996E4
853 852 -1.007006E5
853 853 2.004002E5
853 854 -9.96996E4
854 853 -1.007006E5
854 854 2.004002E5
854 855 -9.96996E4
855 854 -1.007006E5
855 855 2.004002E5
855 856 -9.96996E4
856 855 -1.007006E5
856 856 2.004002E5
856 857 -9.96996E4
857 856 -1.007006E5
857 857 2.004002E5
857 858 -9.96996E4
858 857 -1.007006E5
858 858 2.004002E5
858 859 -9.96996E4
859 858 -1.007006E5
859 859 2.004002E5
859 860 -9.96996E4
860 859 -1.007006E5
860 860 2.004002E5
860 861 -9.96996E4
861 860 -1.007006E5
861 861 2.004002E5
861 862 -9.96996E4
862 861 -1.007006E5
862 862 2.004002E5
862 863 -9.96996E4
863 862 -1.007006E5
863 863 2.004002E5
863 864 -9.96996E4
864 863 -1.007006E5
864 864 2.004002E5
864 865 -9.96996E4
865 864 -1.007006E5
865 865 2.004002E5
865 866 -9.96996E4
866 865 -1.007006E5
866 866 2.004002E5
866 867 -9.96996E4
867 866 -1.007006E5
867 867 2.004002E5
867 868 -9.96996E4
868 867 -1.007006E5
868 868 2.004002E5
868 869 -9.96996E4
869 868 -1.007006E5
869 869 2.004002E5
869 870 -9.96996E4
870 869 -1.007006E5
870 870 2.004002E5
870 871 -9.96996E4
871 870 -1.007006E5
871 871 2.004002E5
871 872 -9.96996E4
872 871 -1.007006E5
872 872 2.004002E5
872 873 -9.96996E4
873 872 -1.007006E5
873 873 2.004002E5
873 874 -9.96996E4
874 873 -1.007006E5
874 874 2.004002E5
874 875 -9.96996E4
875 874 -1.007006E5
875 875 2.004002E5
875 876 -9.96996E4
876 875 -1.007006E5
876 876 2.004002E5
876 877 -9.96996E4
877 876 -1.007006E5
877 877 2.004002E5
877 878 -9.96996E4
878 877 -1.007006E5
878 878 2.004002E5
878 879 -9.96996E4
879 878 -1.007006E5
879 879 2.004002E5
879 880 -9.96996E4
880 879 -1.007006E5
880 880 2.004002E5
880 881 -9.96996E4
881 880 -1.007006E5
881 881 2.004002E5
881 882 -9.96996E4
882 881 -1.007006E5
882 882 2.004002E5
882 883 -9.96996E4
883 882 -1.007006E5
883 883 2.004002E5
883 884 -9.96996E4
884 883 -1.007006E5
884 884 2.004002E5
884 885 -9.96996E4
885 884 -1.007006E5
885 885 2.004002E5
885 886 -9.96996E4
886 885 -1.007006E5
886 886 2.004002E5
886 887 -9.96996E4
887 886 -1.007006E5
887 887 2.004002E5
887 888 -9.96996E4
888 887 -1.007006E5
888 888 2.004002E5
888 889 -9.96996E4
889 888 -1.007006E5
889 889 2.004002E5
889 890 -9.96996E4
890 889 -1.007006E5
890 890 2.004002E5
890 891 -9.96996E4
891 890 -1.007006E5
891 891 2.004002E5
891 892 -9.96996E4
892 891 -1.007006E5
892 892 2.004002E5
892 893 -9.96996E4
893 892 -1.007006E5
893 893 2.004002E5
893 894 -9.96996E4
894 893 -1.007006E5
894 894 2.004002E5
894 895 -9.96996E4
895 894 -1.007006E5
895 895 2.004002E5
895 896 -9.96996E4
896 895 -1.007006E5
896 896 2.004002E5
896 897 -9.96996E4
897 896 -1.007006E5
897 897 2.004002E5
897 898 -9.96996E4
898 897 -1.007006E5
898 898 2.004002E5
898 899 -9.96996E4
899 898 -1.007006E5
899 899 2.004002E5
899 900 -9.96996E4
900 899 -1.007006E5
900 900 2.004002E5
900 901 -9.96996E4
901 900 -1.007006E5
901 901 2.004002E5
901 902 -9.96996E4
902 901 -1.007006E5
902 902 2.004002E5
902 903 -9.96996E4
903 902 -1.007006E5
903 903 2.004002E5
903 904 -9.96996E4
904 903 -1.007006E5
904 904 2.004002E5
904 905 -9.96996E4
905 904 -1.007006E5
905 905 2.004002E5
905 906 -9.96996E4
906 905 -1.007006E5
906 906 2.004002E5
906 907 -9.96996E4
907 906 -1.007006E5
907 907 2.004002E5
907 908 -9.96996E4
908 907 -1.007006E5
908 908 2.004002E5
908 909 -9.96996E4
909 908 -1.007006E5
909 909 2.004002E5
909 910 -9.96996E4
910 909 -1.007006E5
910 910 2.004002E5
910 911 -9.96996E4
911 910 -1.007006E5
911 911 2.004002E5
911 912 -9.96996E4
912 911 -1.007006E5
912 912 2.004002E5
912 913 -9.96996E4
913 912 -1.007006E5
913 913 2.004002E5
913 914 -9.96996E4
914 913 -1.007006E5
914 914 2.004002E5
914 915 -9.96996E4
915 914 -1.007006E5
915 915 2.004002E5
915 916 -9.96996E4
916 915 -1.007006E5
916 916 2.004002E5
916 917 -9.96996E4
917 916 -1.007006E5
917 917 2.004002E5
917 918 -9.96996E4
918 917 -1.007006E5
918 918 2.004002E5
918 919 -9.96996E4
919 918 -1.007006E5
919 919 2.004002E5
919 920 -9.96996E4
920 919 -1.007006E5
920 920 2.004002E5
920 921 -9.96996E4
921 920 -1.007006E5
921 921 2.004002E5
921 922 -9.96996E4
922 921 -1.007006E5
922 922 2.004002E5
922 923 -9.96996E4
923 922 -1.007006E5
923 923 2.004002E5
923 924 -9.96996E4
924 923 -1.007006E5
924 924 2.004002E5
924 925 -9.96996E4
925 924 -1.007006E5
925 925 2.004002E5
925 926 -9.96996E4
926 925 -1.007006E5
926 926 2.004002E5
926 927 -9.96996E4
927 926 -1.007006E5
927 927 2.004002E5
927 928 -9.96996E4
928 927 -1.007006E5
928 928 2.004002E5
928 929 -9.96996E4
929 928 -1.007006E5
929 929 2.004002E5
929 930 -9.96996E4
930 929 -1.007006E5
930 930 2.004002E5
930 931 -9.96996E4
931 930 -1.007006E5
931 931 2.004002E5
931 932 -9.96996E4
932 931 -1.007006E5
932 932 2.004002E5
932 933 -9.96996E4
933 932 -1.007006E5
933 933 2.004002E5
933 934 -9.96996E4
934 933 -1.007006E5
934 934 2.004002E5
934 935 -9.96996E4
935 934 -1.007006E5
935 935 2.004002E5
935 936 -9.96996E4
936 935 -1.007006E5
936 936 2.004002E5
936 937 -9.96996E4
937 936 -1.007006E5
937 937 2.004002E5
937 938 -9.96996E4
938 937 -1.007006E5
938 938 2.004002E5
938 939 -9.96996E4
939 938 -1.007006E5
939 939 2.004002E5
939 940 -9.96996E4
940 939 -1.007006E5
940 940 2.004002E5
940 941 -9.96996E4
941 940 -1.007006E5
941 941 2.004002E5
941 942 -9.96996E4
942 941 -1.007006E5
942 942 2.004002E5
942 943 -9.96996E4
943 942 -1.007006E5
943 943 2.004002E5
943 944 -9.96996E4
944 943 -1.007006E5
944 944 2.004002E5
944 945 -9.96996E4
945 944 -1.007006E5
945 945 2.004002E5
945 946 -9.96996E4
946 945 -1.007006E5
946 946 2.004002E5
946 947 -9.96996E4
947 946 -1.007006E5
947 947 2.004002E5
947 948 -9.96996E4
948 947 -1.007006E5
948 948 2.004002E5
948 949 -9.96996E4
949 948 -1.007006E5
949 949 2.004002E5
949 950 -9.96996E4
950 949 -1.007006E5
950 950 2.004002E5
950 951 -9.96996E4
951 950 -1.007006E5
951 951 2.004002E5
951 952 -9.96996E4
952 951 -1.007006E5
952 952 2.004002E5
952 953 -9.96996E4
953 952 -1.007006E5
953 953 2.004002E5
953 954 -9.96996E4
954 953 -1.007006E5
954 954 2.004002E5
954 955 -9.96996E4
955 954 -1.007006E5
955 955 2.004002E5
955 956 -9.96996E4
956 955 -1.007006E5
956 956 2.004002E5
956 957 -9.96996E4
957 956 -1.007006E5
957 957 2.004002E5
957 958 -9.96996E4
958 957 -1.007006E5
958 958 2.004002E5
958 959 -9.96996E4
959 958 -1.007006E5
959 959 2.004002E5
959 960 -9.96996E4
960 959 -1.007006E5
960 960 2.004002E5
960 961 -9.96996E4
961 960 -1.007006E5
961 961 2.004002E5
961 962 -9.96996E4
962 961 -1.007006E5
962 962 2.004002E5
962 963 -9.96996E4
963 962 -1.007006E5
963 963 2.004002E5
963 964 -9.96996E4
964 963 -1.007006E5
964 964 2.004002E5
964 965 -9.96996E4
965 964 -1.007006E5
965 965 2.004002E5
965 966 -9.96996E4
966 965 -1.007006E5
966 966 2.004002E5
966 967 -9.96996E4
967 966 -1.007006E5
967 967 2.004002E5
967 968 -9.96996E4
968 967 -1.007006E5
968 968 2.004002E5
968 969 -9.96996E4
969 968 -1.007006E5
969 969 2.004002E5
969 970 -9.96996E4
970 969 -1.007006E5
970 970 2.004002E5
970 971 -9.96996E4
971 970 -1.007006E5
971 971 2.004002E5
971 972 -9.96996E4
972 971 -1.007006E5
972 972 2.004002E5
972 973 -9.96996E4
973 972 -1.007006E5
973 973 2.004002E5
973 974 -9.96996E4
974 973 -1.007006E5
974 974 2.004002E5
974 975 -9.96996E4
975 974 -1.007006E5
975 975 2.004002E5
975 976 -9.96996E4
976 975 -1.007006E5
976 976 2.004002E5
976 977 -9.96996E4
977 976 -1.007006E5
977 977 2.004002E5
977 978 -9.96996E4
978 977 -1.007006E5
978 978 2.004002E5
978 979 -9.96996E4
979 978 -1.007006E5
979 979 2.004002E5
979 980 -9.96996E4
980 979 -1.007006E5
980 980 2.004002E5
980 981 -9.96996E4
981 980 -1.007006E5
981 981 2.004002E5
981 982 -9.96996E4
982 981 -1.007006E5
982 982 2.004002E5
982 983 -9.96996E4
983 982 -1.007006E5
983 983 2.004002E5
983 984 -9.96996E4
984 983 -1.007006E5
984 984 2.004002E5
984 985 -9.96996E4
985 984 -1.007006E5
985 985 2.004002E5
985 986 -9.96996E4
986 985 -1.007006E5
986 986 2.004002E5
986 987 -9.96996E4
987 986 -1.007006E5
987 987 2.004002E5
987 988 -9.96996E4
988 987 -1.007006E5
988 988 2.004002E5
988 989 -9.96996E4
989 988 -1.007006E5
989 989 2.004002E5
989 990 -9.96996E4
990 989 -1.007006E5
990 990 2.004002E5
990 991 -9.96996E4
991 990 -1.007006E5
991 991 2.004002E5
991 992 -9.96996E4
992 991 -1.007006E5
992 992 2.004002E5
992 993 -9.96996E4
993 992 -1.007006E5
993 993 2.004002E5
993 994 -9.96996E4
994 993 -1.007006E5
994 994 2.004002E5
994 995 -9.96996E4
995 994 -1.007006E5
995 995 2.004002E5
995 996 -9.96996E4
996 995 -1.007006E5
996 996 2.004002E5
996 997 -9.96996E4
997 996 -1.007006E5
997 997 2.004002E5
997 998 -9.96996E4
998 997 -1.007006E5
998 998 2.004002E5
998 999 -9.96996E4
999 998 -1.007006E5
999 999 2.004002E5
999 1000 -9.96996E4
1000 999 -1.007006E5
1000 1000 2.004002E5
