%%MatrixMarket matrix coordinate real general
%
1000 1000 2998
1 1 1.002001E5
1 2 -4.959955E4
2 1 -5.060055E4
2 2 1.002001E5
2 3 -4.959955E4
3 2 -5.060055E4
3 3 1.002001E5
3 4 -4.959955E4
4 3 -5.060055E4
4 4 1.002001E5
4 5 -4.959955E4
5 4 -5.060055E4
5 5 1.002001E5
5 6 -4.959955E4
6 5 -5.060055E4
6 6 1.002001E5
6 7 -4.959955E4
7 6 -5.060055E4
7 7 1.002001E5
7 8 -4.959955E4
8 7 -5.060055E4
8 8 1.002001E5
8 9 -4.959955E4
9 8 -5.060055E4
9 9 1.002001E5
9 10 -4.959955E4
10 9 -5.060055E4
10 10 1.002001E5
10 11 -4.959955E4
11 10 -5.060055E4
11 11 1.002001E5
11 12 -4.959955E4
12 11 -5.060055E4
12 12 1.002001E5
12 13 -4.959955E4
13 12 -5.060055E4
13 13 1.002001E5
13 14 -4.959955E4
14 13 -5.060055E4
14 14 1.002001E5
14 15 -4.959955E4
15 14 -5.060055E4
15 15 1.002001E5
15 16 -4.959955E4
16 15 -5.060055E4
16 16 1.002001E5
16 17 -4.959955E4
17 16 -5.060055E4
17 17 1.002001E5
17 18 -4.959955E4
18 17 -5.060055E4
18 18 1.002001E5
18 19 -4.959955E4
19 18 -5.060055E4
19 19 1.002001E5
19 20 -4.959955E4
20 19 -5.060055E4
20 20 1.002001E5
20 21 -4.959955E4
21 20 -5.060055E4
21 21 1.002001E5
21 22 -4.959955E4
22 21 -5.060055E4
22 22 1.002001E5
22 23 -4.959955E4
23 22 -5.060055E4
23 23 1.002001E5
23 24 -4.959955E4
24 23 -5.060055E4
24 24 1.002001E5
24 25 -4.959955E4
25 24 -5.060055E4
25 25 1.002001E5
25 26 -4.959955E4
26 25 -5.060055E4
26 26 1.002001E5
26 27 -4.959955E4
27 26 -5.060055E4
27 27 1.002001E5
27 28 -4.959955E4
28 27 -5.060055E4
28 28 1.002001E5
28 29 -4.959955E4
29 28 -5.060055E4
29 29 1.002001E5
29 30 -4.959955E4
30 29 -5.060055E4
30 30 1.002001E5
30 31 -4.959955E4
31 30 -5.060055E4
31 31 1.002001E5
31 32 -4.959955E4
32 31 -5.060055E4
32 32 1.002001E5
32 33 -4.959955E4
33 32 -5.060055E4
33 33 1.002001E5
33 34 -4.959955E4
34 33 -5.060055E4
34 34 1.002001E5
34 35 -4.959955E4
35 34 -5.060055E4
35 35 1.002001E5
35 36 -4.959955E4
36 35 -5.060055E4
36 36 1.002001E5
36 37 -4.959955E4
37 36 -5.060055E4
37 37 1.002001E5
37 38 -4.959955E4
38 37 -5.060055E4
38 38 1.002001E5
38 39 -4.959955E4
39 38 -5.060055E4
39 39 1.002001E5
39 40 -4.959955E4
40 39 -5.060055E4
40 40 1.002001E5
40 41 -4.959955E4
41 40 -5.060055E4
41 41 1.002001E5
41 42 -4.959955E4
42 41 -5.060055E4
42 42 1.002001E5
42 43 -4.959955E4
43 42 -5.060055E4
43 43 1.002001E5
43 44 -4.959955E4
44 43 -5.060055E4
44 44 1.002001E5
44 45 -4.959955E4
45 44 -5.060055E4
45 45 1.002001E5
45 46 -4.959955E4
46 45 -5.060055E4
46 46 1.002001E5
46 47 -4.959955E4
47 46 -5.060055E4
47 47 1.002001E5
47 48 -4.959955E4
48 47 -5.060055E4
48 48 1.002001E5
48 49 -4.959955E4
49 48 -5.060055E4
49 49 1.002001E5
49 50 -4.959955E4
50 49 -5.060055E4
50 50 1.002001E5
50 51 -4.959955E4
51 50 -5.060055E4
51 51 1.002001E5
51 52 -4.959955E4
52 51 -5.060055E4
52 52 1.002001E5
52 53 -4.959955E4
53 52 -5.060055E4
53 53 1.002001E5
53 54 -4.959955E4
54 53 -5.060055E4
54 54 1.002001E5
54 55 -4.959955E4
55 54 -5.060055E4
55 55 1.002001E5
55 56 -4.959955E4
56 55 -5.060055E4
56 56 1.002001E5
56 57 -4.959955E4
57 56 -5.060055E4
57 57 1.002001E5
57 58 -4.959955E4
58 57 -5.060055E4
58 58 1.002001E5
58 59 -4.959955E4
59 58 -5.060055E4
59 59 1.002001E5
59 60 -4.959955E4
60 59 -5.060055E4
60 60 1.002001E5
60 61 -4.959955E4
61 60 -5.060055E4
61 61 1.002001E5
61 62 -4.959955E4
62 61 -5.060055E4
62 62 1.002001E5
62 63 -4.959955E4
63 62 -5.060055E4
63 63 1.002001E5
63 64 -4.959955E4
64 63 -5.060055E4
64 64 1.002001E5
64 65 -4.959955E4
65 64 -5.060055E4
65 65 1.002001E5
65 66 -4.959955E4
66 65 -5.060055E4
66 66 1.002001E5
66 67 -4.959955E4
67 66 -5.060055E4
67 67 1.002001E5
67 68 -4.959955E4
68 67 -5.060055E4
68 68 1.002001E5
68 69 -4.959955E4
69 68 -5.060055E4
69 69 1.002001E5
69 70 -4.959955E4
70 69 -5.060055E4
70 70 1.002001E5
70 71 -4.959955E4
71 70 -5.060055E4
71 71 1.002001E5
71 72 -4.959955E4
72 71 -5.060055E4
72 72 1.002001E5
72 73 -4.959955E4
73 72 -5.060055E4
73 73 1.002001E5
73 74 -4.959955E4
74 73 -5.060055E4
74 74 1.002001E5
74 75 -4.959955E4
75 74 -5.060055E4
75 75 1.002001E5
75 76 -4.959955E4
76 75 -5.060055E4
76 76 1.002001E5
76 77 -4.959955E4
77 76 -5.060055E4
77 77 1.002001E5
77 78 -4.959955E4
78 77 -5.060055E4
78 78 1.002001E5
78 79 -4.959955E4
79 78 -5.060055E4
79 79 1.002001E5
79 80 -4.959955E4
80 79 -5.060055E4
80 80 1.002001E5
80 81 -4.959955E4
81 80 -5.060055E4
81 81 1.002001E5
81 82 -4.959955E4
82 81 -5.060055E4
82 82 1.002001E5
82 83 -4.959955E4
83 82 -5.060055E4
83 83 1.002001E5
83 84 -4.959955E4
84 83 -5.060055E4
84 84 1.002001E5
84 85 -4.959955E4
85 84 -5.060055E4
85 85 1.002001E5
85 86 -4.959955E4
86 85 -5.060055E4
86 86 1.002001E5
86 87 -4.959955E4
87 86 -5.060055E4
87 87 1.002001E5
87 88 -4.959955E4
88 87 -5.060055E4
88 88 1.002001E5
88 89 -4.959955E4
89 88 -5.060055E4
89 89 1.002001E5
89 90 -4.959955E4
90 89 -5.060055E4
90 90 1.002001E5
90 91 -4.959955E4
91 90 -5.060055E4
91 91 1.002001E5
91 92 -4.959955E4
92 91 -5.060055E4
92 92 1.002001E5
92 93 -4.959955E4
93 92 -5.060055E4
93 93 1.002001E5
93 94 -4.959955E4
94 93 -5.060055E4
94 94 1.002001E5
94 95 -4.959955E4
95 94 -5.060055E4
95 95 1.002001E5
95 96 -4.959955E4
96 95 -5.060055E4
96 96 1.002001E5
96 97 -4.959955E4
97 96 -5.060055E4
97 97 1.002001E5
97 98 -4.959955E4
98 97 -5.060055E4
98 98 1.002001E5
98 99 -4.959955E4
99 98 -5.060055E4
99 99 1.002001E5
99 100 -4.959955E4
100 99 -5.060055E4
100 100 1.002001E5
100 101 -4.959955E4
101 100 -5.060055E4
101 101 1.002001E5
101 102 -4.959955E4
102 101 -5.060055E4
102 102 1.002001E5
102 103 -4.959955E4
103 102 -5.060055E4
103 103 1.002001E5
103 104 -4.959955E4
104 103 -5.060055E4
104 104 1.002001E5
104 105 -4.959955E4
105 104 -5.060055E4
105 105 1.002001E5
105 106 -4.959955E4
106 105 -5.060055E4
106 106 1.002001E5
106 107 -4.959955E4
107 106 -5.060055E4
107 107 1.002001E5
107 108 -4.959955E4
108 107 -5.060055E4
108 108 1.002001E5
108 109 -4.959955E4
109 108 -5.060055E4
109 109 1.002001E5
109 110 -4.959955E4
110 109 -5.060055E4
110 110 1.002001E5
110 111 -4.959955E4
111 110 -5.060055E4
111 111 1.002001E5
111 112 -4.959955E4
112 111 -5.060055E4
112 112 1.002001E5
112 113 -4.959955E4
113 112 -5.060055E4
113 113 1.002001E5
113 114 -4.959955E4
114 113 -5.060055E4
114 114 1.002001E5
114 115 -4.959955E4
115 114 -5.060055E4
115 115 1.002001E5
115 116 -4.959955E4
116 115 -5.060055E4
116 116 1.002001E5
116 117 -4.959955E4
117 116 -5.060055E4
117 117 1.002001E5
117 118 -4.959955E4
118 117 -5.060055E4
118 118 1.002001E5
118 119 -4.959955E4
119 118 -5.060055E4
119 119 1.002001E5
119 120 -4.959955E4
120 119 -5.060055E4
120 120 1.002001E5
120 121 -4.959955E4
121 120 -5.060055E4
121 121 1.002001E5
121 122 -4.959955E4
122 121 -5.060055E4
122 122 1.002001E5
122 123 -4.959955E4
123 122 -5.060055E4
123 123 1.002001E5
123 124 -4.959955E4
124 123 -5.060055E4
124 124 1.002001E5
124 125 -4.959955E4
125 124 -5.060055E4
125 125 1.002001E5
125 126 -4.959955E4
126 125 -5.060055E4
126 126 1.002001E5
126 127 -4.959955E4
127 126 -5.060055E4
127 127 1.002001E5
127 128 -4.959955E4
128 127 -5.060055E4
128 128 1.002001E5
128 129 -4.959955E4
129 128 -5.060055E4
129 129 1.002001E5
129 130 -4.959955E4
130 129 -5.060055E4
130 130 1.002001E5
130 131 -4.959955E4
131 130 -5.060055E4
131 131 1.002001E5
131 132 -4.959955E4
132 131 -5.060055E4
132 132 1.002001E5
132 133 -4.959955E4
133 132 -5.060055E4
133 133 1.002001E5
133 134 -4.959955E4
134 133 -5.060055E4
134 134 1.002001E5
134 135 -4.959955E4
135 134 -5.060055E4
135 135 1.002001E5
135 136 -4.959955E4
136 135 -5.060055E4
136 136 1.002001E5
136 137 -4.959955E4
137 136 -5.060055E4
137 137 1.002001E5
137 138 -4.959955E4
138 137 -5.060055E4
138 138 1.002001E5
138 139 -4.959955E4
139 138 -5.060055E4
139 139 1.002001E5
139 140 -4.959955E4
140 139 -5.060055E4
140 140 1.002001E5
140 141 -4.959955E4
141 140 -5.060055E4
141 141 1.002001E5
141 142 -4.959955E4
142 141 -5.060055E4
142 142 1.002001E5
142 143 -4.959955E4
143 142 -5.060055E4
143 143 1.002001E5
143 144 -4.959955E4
144 143 -5.060055E4
144 144 1.002001E5
144 145 -4.959955E4
145 144 -5.060055E4
145 145 1.002001E5
145 146 -4.959955E4
146 145 -5.060055E4
146 146 1.002001E5
146 147 -4.959955E4
147 146 -5.060055E4
147 147 1.002001E5
147 148 -4.959955E4
148 147 -5.060055E4
148 148 1.002001E5
148 149 -4.959955E4
149 148 -5.060055E4
149 149 1.002001E5
149 150 -4.959955E4
150 149 -5.060055E4
150 150 1.002001E5
150 151 -4.959955E4
151 150 -5.060055E4
151 151 1.002001E5
151 152 -4.959955E4
152 151 -5.060055E4
152 152 1.002001E5
152 153 -4.959955E4
153 152 -5.060055E4
153 153 1.002001E5
153 154 -4.959955E4
154 153 -5.060055E4
154 154 1.002001E5
154 155 -4.959955E4
155 154 -5.060055E4
155 155 1.002001E5
155 156 -4.959955E4
156 155 -5.060055E4
156 156 1.002001E5
156 157 -4.959955E4
157 156 -5.060055E4
157 157 1.002001E5
157 158 -4.959955E4
158 157 -5.060055E4
158 158 1.002001E5
158 159 -4.959955E4
159 158 -5.060055E4
159 159 1.002001E5
159 160 -4.959955E4
160 159 -5.060055E4
160 160 1.002001E5
160 161 -4.959955E4
161 160 -5.060055E4
161 161 1.002001E5
161 162 -4.959955E4
162 161 -5.060055E4
162 162 1.002001E5
162 163 -4.959955E4
163 162 -5.060055E4
163 163 1.002001E5
163 164 -4.959955E4
164 163 -5.060055E4
164 164 1.002001E5
164 165 -4.959955E4
165 164 -5.060055E4
165 165 1.002001E5
165 166 -4.959955E4
166 165 -5.060055E4
166 166 1.002001E5
166 167 -4.959955E4
167 166 -5.060055E4
167 167 1.002001E5
167 168 -4.959955E4
168 167 -5.060055E4
168 168 1.002001E5
168 169 -4.959955E4
169 168 -5.060055E4
169 169 1.002001E5
169 170 -4.959955E4
170 169 -5.060055E4
170 170 1.002001E5
170 171 -4.959955E4
171 170 -5.060055E4
171 171 1.002001E5
171 172 -4.959955E4
172 171 -5.060055E4
172 172 1.002001E5
172 173 -4.959955E4
173 172 -5.060055E4
173 173 1.002001E5
173 174 -4.959955E4
174 173 -5.060055E4
174 174 1.002001E5
174 175 -4.959955E4
175 174 -5.060055E4
175 175 1.002001E5
175 176 -4.959955E4
176 175 -5.060055E4
176 176 1.002001E5
176 177 -4.959955E4
177 176 -5.060055E4
177 177 1.002001E5
177 178 -4.959955E4
178 177 -5.060055E4
178 178 1.002001E5
178 179 -4.959955E4
179 178 -5.060055E4
179 179 1.002001E5
179 180 -4.959955E4
180 179 -5.060055E4
180 180 1.002001E5
180 181 -4.959955E4
181 180 -5.060055E4
181 181 1.002001E5
181 182 -4.959955E4
182 181 -5.060055E4
182 182 1.002001E5
182 183 -4.959955E4
183 182 -5.060055E4
183 183 1.002001E5
183 184 -4.959955E4
184 183 -5.060055E4
184 184 1.002001E5
184 185 -4.959955E4
185 184 -5.060055E4
185 185 1.002001E5
185 186 -4.959955E4
186 185 -5.060055E4
186 186 1.002001E5
186 187 -4.959955E4
187 186 -5.060055E4
187 187 1.002001E5
187 188 -4.959955E4
188 187 -5.060055E4
188 188 1.002001E5
188 189 -4.959955E4
189 188 -5.060055E4
189 189 1.002001E5
189 190 -4.959955E4
190 189 -5.060055E4
190 190 1.002001E5
190 191 -4.959955E4
191 190 -5.060055E4
191 191 1.002001E5
191 192 -4.959955E4
192 191 -5.060055E4
192 192 1.002001E5
192 193 -4.959955E4
193 192 -5.060055E4
193 193 1.002001E5
193 194 -4.959955E4
194 193 -5.060055E4
194 194 1.002001E5
194 195 -4.959955E4
195 194 -5.060055E4
195 195 1.002001E5
195 196 -4.959955E4
196 195 -5.060055E4
196 196 1.002001E5
196 197 -4.959955E4
197 196 -5.060055E4
197 197 1.002001E5
197 198 -4.959955E4
198 197 -5.060055E4
198 198 1.002001E5
198 199 -4.959955E4
199 198 -5.060055E4
199 199 1.002001E5
199 200 -4.959955E4
200 199 -5.060055E4
200 200 1.002001E5
200 201 -4.959955E4
201 200 -5.060055E4
201 201 1.002001E5
201 202 -4.959955E4
202 201 -5.060055E4
202 202 1.002001E5
202 203 -4.959955E4
203 202 -5.060055E4
203 203 1.002001E5
203 204 -4.959955E4
204 203 -5.060055E4
204 204 1.002001E5
204 205 -4.959955E4
205 204 -5.060055E4
205 205 1.002001E5
205 206 -4.959955E4
206 205 -5.060055E4
206 206 1.002001E5
206 207 -4.959955E4
207 206 -5.060055E4
207 207 1.002001E5
207 208 -4.959955E4
208 207 -5.060055E4
208 208 1.002001E5
208 209 -4.959955E4
209 208 -5.060055E4
209 209 1.002001E5
209 210 -4.959955E4
210 209 -5.060055E4
210 210 1.002001E5
210 211 -4.959955E4
211 210 -5.060055E4
211 211 1.002001E5
211 212 -4.959955E4
212 211 -5.060055E4
212 212 1.002001E5
212 213 -4.959955E4
213 212 -5.060055E4
213 213 1.002001E5
213 214 -4.959955E4
214 213 -5.060055E4
214 214 1.002001E5
214 215 -4.959955E4
215 214 -5.060055E4
215 215 1.002001E5
215 216 -4.959955E4
216 215 -5.060055E4
216 216 1.002001E5
216 217 -4.959955E4
217 216 -5.060055E4
217 217 1.002001E5
217 218 -4.959955E4
218 217 -5.060055E4
218 218 1.002001E5
218 219 -4.959955E4
219 218 -5.060055E4
219 219 1.002001E5
219 220 -4.959955E4
220 219 -5.060055E4
220 220 1.002001E5
220 221 -4.959955E4
221 220 -5.060055E4
221 221 1.002001E5
221 222 -4.959955E4
222 221 -5.060055E4
222 222 1.002001E5
222 223 -4.959955E4
223 222 -5.060055E4
223 223 1.002001E5
223 224 -4.959955E4
224 223 -5.060055E4
224 224 1.002001E5
224 225 -4.959955E4
225 224 -5.060055E4
225 225 1.002001E5
225 226 -4.959955E4
226 225 -5.060055E4
226 226 1.002001E5
226 227 -4.959955E4
227 226 -5.060055E4
227 227 1.002001E5
227 228 -4.959955E4
228 227 -5.060055E4
228 228 1.002001E5
228 229 -4.959955E4
229 228 -5.060055E4
229 229 1.002001E5
229 230 -4.959955E4
230 229 -5.060055E4
230 230 1.002001E5
230 231 -4.959955E4
231 230 -5.060055E4
231 231 1.002001E5
231 232 -4.959955E4
232 231 -5.060055E4
232 232 1.002001E5
232 233 -4.959955E4
233 232 -5.060055E4
233 233 1.002001E5
233 234 -4.959955E4
234 233 -5.060055E4
234 234 1.002001E5
234 235 -4.959955E4
235 234 -5.060055E4
235 235 1.002001E5
235 236 -4.959955E4
236 235 -5.060055E4
236 236 1.002001E5
236 237 -4.959955E4
237 236 -5.060055E4
237 237 1.002001E5
237 238 -4.959955E4
238 237 -5.060055E4
238 238 1.002001E5
238 239 -4.959955E4
239 238 -5.060055E4
239 239 1.002001E5
239 240 -4.959955E4
240 239 -5.060055E4
240 240 1.002001E5
240 241 -4.959955E4
241 240 -5.060055E4
241 241 1.002001E5
241 242 -4.959955E4
242 241 -5.060055E4
242 242 1.002001E5
242 243 -4.959955E4
243 242 -5.060055E4
243 243 1.002001E5
243 244 -4.959955E4
244 243 -5.060055E4
244 244 1.002001E5
244 245 -4.959955E4
245 244 -5.060055E4
245 245 1.002001E5
245 246 -4.959955E4
246 245 -5.060055E4
246 246 1.002001E5
246 247 -4.959955E4
247 246 -5.060055E4
247 247 1.002001E5
247 248 -4.959955E4
248 247 -5.060055E4
248 248 1.002001E5
248 249 -4.959955E4
249 248 -5.060055E4
249 249 1.002001E5
249 250 -4.959955E4
250 249 -5.060055E4
250 250 1.002001E5
250 251 -4.959955E4
251 250 -5.060055E4
251 251 1.002001E5
251 252 -4.959955E4
252 251 -5.060055E4
252 252 1.002001E5
252 253 -4.959955E4
253 252 -5.060055E4
253 253 1.002001E5
253 254 -4.959955E4
254 253 -5.060055E4
254 254 1.002001E5
254 255 -4.959955E4
255 254 -5.060055E4
255 255 1.002001E5
255 256 -4.959955E4
256 255 -5.060055E4
256 256 1.002001E5
256 257 -4.959955E4
257 256 -5.060055E4
257 257 1.002001E5
257 258 -4.959955E4
258 257 -5.060055E4
258 258 1.002001E5
258 259 -4.959955E4
259 258 -5.060055E4
259 259 1.002001E5
259 260 -4.959955E4
260 259 -5.060055E4
260 260 1.002001E5
260 261 -4.959955E4
261 260 -5.060055E4
261 261 1.002001E5
261 262 -4.959955E4
262 261 -5.060055E4
262 262 1.002001E5
262 263 -4.959955E4
263 262 -5.060055E4
263 263 1.002001E5
263 264 -4.959955E4
264 263 -5.060055E4
264 264 1.002001E5
264 265 -4.959955E4
265 264 -5.060055E4
265 265 1.002001E5
265 266 -4.959955E4
266 265 -5.060055E4
266 266 1.002001E5
266 267 -4.959955E4
267 266 -5.060055E4
267 267 1.002001E5
267 268 -4.959955E4
268 267 -5.060055E4
268 268 1.002001E5
268 269 -4.959955E4
269 268 -5.060055E4
269 269 1.002001E5
269 270 -4.959955E4
270 269 -5.060055E4
270 270 1.002001E5
270 271 -4.959955E4
271 270 -5.060055E4
271 271 1.002001E5
271 272 -4.959955E4
272 271 -5.060055E4
272 272 1.002001E5
272 273 -4.959955E4
273 272 -5.060055E4
273 273 1.002001E5
273 274 -4.959955E4
274 273 -5.060055E4
274 274 1.002001E5
274 275 -4.959955E4
275 274 -5.060055E4
275 275 1.002001E5
275 276 -4.959955E4
276 275 -5.060055E4
276 276 1.002001E5
276 277 -4.959955E4
277 276 -5.060055E4
277 277 1.002001E5
277 278 -4.959955E4
278 277 -5.060055E4
278 278 1.002001E5
278 279 -4.959955E4
279 278 -5.060055E4
279 279 1.002001E5
279 280 -4.959955E4
280 279 -5.060055E4
280 280 1.002001E5
280 281 -4.959955E4
281 280 -5.060055E4
281 281 1.002001E5
281 282 -4.959955E4
282 281 -5.060055E4
282 282 1.002001E5
282 283 -4.959955E4
283 282 -5.060055E4
283 283 1.002001E5
283 284 -4.959955E4
284 283 -5.060055E4
284 284 1.002001E5
284 285 -4.959955E4
285 284 -5.060055E4
285 285 1.002001E5
285 286 -4.959955E4
286 285 -5.060055E4
286 286 1.002001E5
286 287 -4.959955E4
287 286 -5.060055E4
287 287 1.002001E5
287 288 -4.959955E4
288 287 -5.060055E4
288 288 1.002001E5
288 289 -4.959955E4
289 288 -5.060055E4
289 289 1.002001E5
289 290 -4.959955E4
290 289 -5.060055E4
290 290 1.002001E5
290 291 -4.959955E4
291 290 -5.060055E4
291 291 1.002001E5
291 292 -4.959955E4
292 291 -5.060055E4
292 292 1.002001E5
292 293 -4.959955E4
293 292 -5.060055E4
293 293 1.002001E5
293 294 -4.959955E4
294 293 -5.060055E4
294 294 1.002001E5
294 295 -4.959955E4
295 294 -5.060055E4
295 295 1.002001E5
295 296 -4.959955E4
296 295 -5.060055E4
296 296 1.002001E5
296 297 -4.959955E4
297 296 -5.060055E4
297 297 1.002001E5
297 298 -4.959955E4
298 297 -5.060055E4
298 298 1.002001E5
298 299 -4.959955E4
299 298 -5.060055E4
299 299 1.002001E5
299 300 -4.959955E4
300 299 -5.060055E4
300 300 1.002001E5
300 301 -4.959955E4
301 300 -5.060055E4
301 301 1.002001E5
301 302 -4.959955E4
302 301 -5.060055E4
302 302 1.002001E5
302 303 -4.959955E4
303 302 -5.060055E4
303 303 1.002001E5
303 304 -4.959955E4
304 303 -5.060055E4
304 304 1.002001E5
304 305 -4.959955E4
305 304 -5.060055E4
305 305 1.002001E5
305 306 -4.959955E4
306 305 -5.060055E4
306 306 1.002001E5
306 307 -4.959955E4
307 306 -5.060055E4
307 307 1.002001E5
307 308 -4.959955E4
308 307 -5.060055E4
308 308 1.002001E5
308 309 -4.959955E4
309 308 -5.060055E4
309 309 1.002001E5
309 310 -4.959955E4
310 309 -5.060055E4
310 310 1.002001E5
310 311 -4.959955E4
311 310 -5.060055E4
311 311 1.002001E5
311 312 -4.959955E4
312 311 -5.060055E4
312 312 1.002001E5
312 313 -4.959955E4
313 312 -5.060055E4
313 313 1.002001E5
313 314 -4.959955E4
314 313 -5.060055E4
314 314 1.002001E5
314 315 -4.959955E4
315 314 -5.060055E4
315 315 1.002001E5
315 316 -4.959955E4
316 315 -5.060055E4
316 316 1.002001E5
316 317 -4.959955E4
317 316 -5.060055E4
317 317 1.002001E5
317 318 -4.959955E4
318 317 -5.060055E4
318 318 1.002001E5
318 319 -4.959955E4
319 318 -5.060055E4
319 319 1.002001E5
319 320 -4.959955E4
320 319 -5.060055E4
320 320 1.002001E5
320 321 -4.959955E4
321 320 -5.060055E4
321 321 1.002001E5
321 322 -4.959955E4
322 321 -5.060055E4
322 322 1.002001E5
322 323 -4.959955E4
323 322 -5.060055E4
323 323 1.002001E5
323 324 -4.959955E4
324 323 -5.060055E4
324 324 1.002001E5
324 325 -4.959955E4
325 324 -5.060055E4
325 325 1.002001E5
325 326 -4.959955E4
326 325 -5.060055E4
326 326 1.002001E5
326 327 -4.959955E4
327 326 -5.060055E4
327 327 1.002001E5
327 328 -4.959955E4
328 327 -5.060055E4
328 328 1.002001E5
328 329 -4.959955E4
329 328 -5.060055E4
329 329 1.002001E5
329 330 -4.959955E4
330 329 -5.060055E4
330 330 1.002001E5
330 331 -4.959955E4
331 330 -5.060055E4
331 331 1.002001E5
331 332 -4.959955E4
332 331 -5.060055E4
332 332 1.002001E5
332 333 -4.959955E4
333 332 -5.060055E4
333 333 1.002001E5
333 334 -4.959955E4
334 333 -5.060055E4
334 334 1.002001E5
334 335 -4.959955E4
335 334 -5.060055E4
335 335 1.002001E5
335 336 -4.959955E4
336 335 -5.060055E4
336 336 1.002001E5
336 337 -4.959955E4
337 336 -5.060055E4
337 337 1.002001E5
337 338 -4.959955E4
338 337 -5.060055E4
338 338 1.002001E5
338 339 -4.959955E4
339 338 -5.060055E4
339 339 1.002001E5
339 340 -4.959955E4
340 339 -5.060055E4
340 340 1.002001E5
340 341 -4.959955E4
341 340 -5.060055E4
341 341 1.002001E5
341 342 -4.959955E4
342 341 -5.060055E4
342 342 1.002001E5
342 343 -4.959955E4
343 342 -5.060055E4
343 343 1.002001E5
343 344 -4.959955E4
344 343 -5.060055E4
344 344 1.002001E5
344 345 -4.959955E4
345 344 -5.060055E4
345 345 1.002001E5
345 346 -4.959955E4
346 345 -5.060055E4
346 346 1.002001E5
346 347 -4.959955E4
347 346 -5.060055E4
347 347 1.002001E5
347 348 -4.959955E4
348 347 -5.060055E4
348 348 1.002001E5
348 349 -4.959955E4
349 348 -5.060055E4
349 349 1.002001E5
349 350 -4.959955E4
350 349 -5.060055E4
350 350 1.002001E5
350 351 -4.959955E4
351 350 -5.060055E4
351 351 1.002001E5
351 352 -4.959955E4
352 351 -5.060055E4
352 352 1.002001E5
352 353 -4.959955E4
353 352 -5.060055E4
353 353 1.002001E5
353 354 -4.959955E4
354 353 -5.060055E4
354 354 1.002001E5
354 355 -4.959955E4
355 354 -5.060055E4
355 355 1.002001E5
355 356 -4.959955E4
356 355 -5.060055E4
356 356 1.002001E5
356 357 -4.959955E4
357 356 -5.060055E4
357 357 1.002001E5
357 358 -4.959955E4
358 357 -5.060055E4
358 358 1.002001E5
358 359 -4.959955E4
359 358 -5.060055E4
359 359 1.002001E5
359 360 -4.959955E4
360 359 -5.060055E4
360 360 1.002001E5
360 361 -4.959955E4
361 360 -5.060055E4
361 361 1.002001E5
361 362 -4.959955E4
362 361 -5.060055E4
362 362 1.002001E5
362 363 -4.959955E4
363 362 -5.060055E4
363 363 1.002001E5
363 364 -4.959955E4
364 363 -5.060055E4
364 364 1.002001E5
364 365 -4.959955E4
365 364 -5.060055E4
365 365 1.002001E5
365 366 -4.959955E4
366 365 -5.060055E4
366 366 1.002001E5
366 367 -4.959955E4
367 366 -5.060055E4
367 367 1.002001E5
367 368 -4.959955E4
368 367 -5.060055E4
368 368 1.002001E5
368 369 -4.959955E4
369 368 -5.060055E4
369 369 1.002001E5
369 370 -4.959955E4
370 369 -5.060055E4
370 370 1.002001E5
370 371 -4.959955E4
371 370 -5.060055E4
371 371 1.002001E5
371 372 -4.959955E4
372 371 -5.060055E4
372 372 1.002001E5
372 373 -4.959955E4
373 372 -5.060055E4
373 373 1.002001E5
373 374 -4.959955E4
374 373 -5.060055E4
374 374 1.002001E5
374 375 -4.959955E4
375 374 -5.060055E4
375 375 1.002001E5
375 376 -4.959955E4
376 375 -5.060055E4
376 376 1.002001E5
376 377 -4.959955E4
377 376 -5.060055E4
377 377 1.002001E5
377 378 -4.959955E4
378 377 -5.060055E4
378 378 1.002001E5
378 379 -4.959955E4
379 378 -5.060055E4
379 379 1.002001E5
379 380 -4.959955E4
380 379 -5.060055E4
380 380 1.002001E5
380 381 -4.959955E4
381 380 -5.060055E4
381 381 1.002001E5
381 382 -4.959955E4
382 381 -5.060055E4
382 382 1.002001E5
382 383 -4.959955E4
383 382 -5.060055E4
383 383 1.002001E5
383 384 -4.959955E4
384 383 -5.060055E4
384 384 1.002001E5
384 385 -4.959955E4
385 384 -5.060055E4
385 385 1.002001E5
385 386 -4.959955E4
386 385 -5.060055E4
386 386 1.002001E5
386 387 -4.959955E4
387 386 -5.060055E4
387 387 1.002001E5
387 388 -4.959955E4
388 387 -5.060055E4
388 388 1.002001E5
388 389 -4.959955E4
389 388 -5.060055E4
389 389 1.002001E5
389 390 -4.959955E4
390 389 -5.060055E4
390 390 1.002001E5
390 391 -4.959955E4
391 390 -5.060055E4
391 391 1.002001E5
391 392 -4.959955E4
392 391 -5.060055E4
392 392 1.002001E5
392 393 -4.959955E4
393 392 -5.060055E4
393 393 1.002001E5
393 394 -4.959955E4
394 393 -5.060055E4
394 394 1.002001E5
394 395 -4.959955E4
395 394 -5.060055E4
395 395 1.002001E5
395 396 -4.959955E4
396 395 -5.060055E4
396 396 1.002001E5
396 397 -4.959955E4
397 396 -5.060055E4
397 397 1.002001E5
397 398 -4.959955E4
398 397 -5.060055E4
398 398 1.002001E5
398 399 -4.959955E4
399 398 -5.060055E4
399 399 1.002001E5
399 400 -4.959955E4
400 399 -5.060055E4
400 400 1.002001E5
400 401 -4.959955E4
401 400 -5.060055E4
401 401 1.002001E5
401 402 -4.959955E4
402 401 -5.060055E4
402 402 1.002001E5
402 403 -4.959955E4
403 402 -5.060055E4
403 403 1.002001E5
403 404 -4.959955E4
404 403 -5.060055E4
404 404 1.002001E5
404 405 -4.959955E4
405 404 -5.060055E4
405 405 1.002001E5
405 406 -4.959955E4
406 405 -5.060055E4
406 406 1.002001E5
406 407 -4.959955E4
407 406 -5.060055E4
407 407 1.002001E5
407 408 -4.959955E4
408 407 -5.060055E4
408 408 1.002001E5
408 409 -4.959955E4
409 408 -5.060055E4
409 409 1.002001E5
409 410 -4.959955E4
410 409 -5.060055E4
410 410 1.002001E5
410 411 -4.959955E4
411 410 -5.060055E4
411 411 1.002001E5
411 412 -4.959955E4
412 411 -5.060055E4
412 412 1.002001E5
412 413 -4.959955E4
413 412 -5.060055E4
413 413 1.002001E5
413 414 -4.959955E4
414 413 -5.060055E4
414 414 1.002001E5
414 415 -4.959955E4
415 414 -5.060055E4
415 415 1.002001E5
415 416 -4.959955E4
416 415 -5.060055E4
416 416 1.002001E5
416 417 -4.959955E4
417 416 -5.060055E4
417 417 1.002001E5
417 418 -4.959955E4
418 417 -5.060055E4
418 418 1.002001E5
418 419 -4.959955E4
419 418 -5.060055E4
419 419 1.002001E5
419 420 -4.959955E4
420 419 -5.060055E4
420 420 1.002001E5
420 421 -4.959955E4
421 420 -5.060055E4
421 421 1.002001E5
421 422 -4.959955E4
422 421 -5.060055E4
422 422 1.002001E5
422 423 -4.959955E4
423 422 -5.060055E4
423 423 1.002001E5
423 424 -4.959955E4
424 423 -5.060055E4
424 424 1.002001E5
424 425 -4.959955E4
425 424 -5.060055E4
425 425 1.002001E5
425 426 -4.959955E4
426 425 -5.060055E4
426 426 1.002001E5
426 427 -4.959955E4
427 426 -5.060055E4
427 427 1.002001E5
427 428 -4.959955E4
428 427 -5.060055E4
428 428 1.002001E5
428 429 -4.959955E4
429 428 -5.060055E4
429 429 1.002001E5
429 430 -4.959955E4
430 429 -5.060055E4
430 430 1.002001E5
430 431 -4.959955E4
431 430 -5.060055E4
431 431 1.002001E5
431 432 -4.959955E4
432 431 -5.060055E4
432 432 1.002001E5
432 433 -4.959955E4
433 432 -5.060055E4
433 433 1.002001E5
433 434 -4.959955E4
434 433 -5.060055E4
434 434 1.002001E5
434 435 -4.959955E4
435 434 -5.060055E4
435 435 1.002001E5
435 436 -4.959955E4
436 435 -5.060055E4
436 436 1.002001E5
436 437 -4.959955E4
437 436 -5.060055E4
437 437 1.002001E5
437 438 -4.959955E4
438 437 -5.060055E4
438 438 1.002001E5
438 439 -4.959955E4
439 438 -5.060055E4
439 439 1.002001E5
439 440 -4.959955E4
440 439 -5.060055E4
440 440 1.002001E5
440 441 -4.959955E4
441 440 -5.060055E4
441 441 1.002001E5
441 442 -4.959955E4
442 441 -5.060055E4
442 442 1.002001E5
442 443 -4.959955E4
443 442 -5.060055E4
443 443 1.002001E5
443 444 -4.959955E4
444 443 -5.060055E4
444 444 1.002001E5
444 445 -4.959955E4
445 444 -5.060055E4
445 445 1.002001E5
445 446 -4.959955E4
446 445 -5.060055E4
446 446 1.002001E5
446 447 -4.959955E4
447 446 -5.060055E4
447 447 1.002001E5
447 448 -4.959955E4
448 447 -5.060055E4
448 448 1.002001E5
448 449 -4.959955E4
449 448 -5.060055E4
449 449 1.002001E5
449 450 -4.959955E4
450 449 -5.060055E4
450 450 1.002001E5
450 451 -4.959955E4
451 450 -5.060055E4
451 451 1.002001E5
451 452 -4.959955E4
452 451 -5.060055E4
452 452 1.002001E5
452 453 -4.959955E4
453 452 -5.060055E4
453 453 1.002001E5
453 454 -4.959955E4
454 453 -5.060055E4
454 454 1.002001E5
454 455 -4.959955E4
455 454 -5.060055E4
455 455 1.002001E5
455 456 -4.959955E4
456 455 -5.060055E4
456 456 1.002001E5
456 457 -4.959955E4
457 456 -5.060055E4
457 457 1.002001E5
457 458 -4.959955E4
458 457 -5.060055E4
458 458 1.002001E5
458 459 -4.959955E4
459 458 -5.060055E4
459 459 1.002001E5
459 460 -4.959955E4
460 459 -5.060055E4
460 460 1.002001E5
460 461 -4.959955E4
461 460 -5.060055E4
461 461 1.002001E5
461 462 -4.959955E4
462 461 -5.060055E4
462 462 1.002001E5
462 463 -4.959955E4
463 462 -5.060055E4
463 463 1.002001E5
463 464 -4.959955E4
464 463 -5.060055E4
464 464 1.002001E5
464 465 -4.959955E4
465 464 -5.060055E4
465 465 1.002001E5
465 466 -4.959955E4
466 465 -5.060055E4
466 466 1.002001E5
466 467 -4.959955E4
467 466 -5.060055E4
467 467 1.002001E5
467 468 -4.959955E4
468 467 -5.060055E4
468 468 1.002001E5
468 469 -4.959955E4
469 468 -5.060055E4
469 469 1.002001E5
469 470 -4.959955E4
470 469 -5.060055E4
470 470 1.002001E5
470 471 -4.959955E4
471 470 -5.060055E4
471 471 1.002001E5
471 472 -4.959955E4
472 471 -5.060055E4
472 472 1.002001E5
472 473 -4.959955E4
473 472 -5.060055E4
473 473 1.002001E5
473 474 -4.959955E4
474 473 -5.060055E4
474 474 1.002001E5
474 475 -4.959955E4
475 474 -5.060055E4
475 475 1.002001E5
475 476 -4.959955E4
476 475 -5.060055E4
476 476 1.002001E5
476 477 -4.959955E4
477 476 -5.060055E4
477 477 1.002001E5
477 478 -4.959955E4
478 477 -5.060055E4
478 478 1.002001E5
478 479 -4.959955E4
479 478 -5.060055E4
479 479 1.002001E5
479 480 -4.959955E4
480 479 -5.060055E4
480 480 1.002001E5
480 481 -4.959955E4
481 480 -5.060055E4
481 481 1.002001E5
481 482 -4.959955E4
482 481 -5.060055E4
482 482 1.002001E5
482 483 -4.959955E4
483 482 -5.060055E4
483 483 1.002001E5
483 484 -4.959955E4
484 483 -5.060055E4
484 484 1.002001E5
484 485 -4.959955E4
485 484 -5.060055E4
485 485 1.002001E5
485 486 -4.959955E4
486 485 -5.060055E4
486 486 1.002001E5
486 487 -4.959955E4
487 486 -5.060055E4
487 487 1.002001E5
487 488 -4.959955E4
488 487 -5.060055E4
488 488 1.002001E5
488 489 -4.959955E4
489 488 -5.060055E4
489 489 1.002001E5
489 490 -4.959955E4
490 489 -5.060055E4
490 490 1.002001E5
490 491 -4.959955E4
491 490 -5.060055E4
491 491 1.002001E5
491 492 -4.959955E4
492 491 -5.060055E4
492 492 1.002001E5
492 493 -4.959955E4
493 492 -5.060055E4
493 493 1.002001E5
493 494 -4.959955E4
494 493 -5.060055E4
494 494 1.002001E5
494 495 -4.959955E4
495 494 -5.060055E4
495 495 1.002001E5
495 496 -4.959955E4
496 495 -5.060055E4
496 496 1.002001E5
496 497 -4.959955E4
497 496 -5.060055E4
497 497 1.002001E5
497 498 -4.959955E4
498 497 -5.060055E4
498 498 1.002001E5
498 499 -4.959955E4
499 498 -5.060055E4
499 499 1.002001E5
499 500 -4.959955E4
500 499 -5.060055E4
500 500 1.002001E5
500 501 -4.959955E4
501 500 -5.060055E4
501 501 1.002001E5
501 502 -4.959955E4
502 501 -5.060055E4
502 502 1.002001E5
502 503 -4.959955E4
503 502 -5.060055E4
503 503 1.002001E5
503 504 -4.959955E4
504 503 -5.060055E4
504 504 1.002001E5
504 505 -4.959955E4
505 504 -5.060055E4
505 505 1.002001E5
505 506 -4.959955E4
506 505 -5.060055E4
506 506 1.002001E5
506 507 -4.959955E4
507 506 -5.060055E4
507 507 1.002001E5
507 508 -4.959955E4
508 507 -5.060055E4
508 508 1.002001E5
508 509 -4.959955E4
509 508 -5.060055E4
509 509 1.002001E5
509 510 -4.959955E4
510 509 -5.060055E4
510 510 1.002001E5
510 511 -4.959955E4
511 510 -5.060055E4
511 511 1.002001E5
511 512 -4.959955E4
512 511 -5.060055E4
512 512 1.002001E5
512 513 -4.959955E4
513 512 -5.060055E4
513 513 1.002001E5
513 514 -4.959955E4
514 513 -5.060055E4
514 514 1.002001E5
514 515 -4.959955E4
515 514 -5.060055E4
515 515 1.002001E5
515 516 -4.959955E4
516 515 -5.060055E4
516 516 1.002001E5
516 517 -4.959955E4
517 516 -5.060055E4
517 517 1.002001E5
517 518 -4.959955E4
518 517 -5.060055E4
518 518 1.002001E5
518 519 -4.959955E4
519 518 -5.060055E4
519 519 1.002001E5
519 520 -4.959955E4
520 519 -5.060055E4
520 520 1.002001E5
520 521 -4.959955E4
521 520 -5.060055E4
521 521 1.002001E5
521 522 -4.959955E4
522 521 -5.060055E4
522 522 1.002001E5
522 523 -4.959955E4
523 522 -5.060055E4
523 523 1.002001E5
523 524 -4.959955E4
524 523 -5.060055E4
524 524 1.002001E5
524 525 -4.959955E4
525 524 -5.060055E4
525 525 1.002001E5
525 526 -4.959955E4
526 525 -5.060055E4
526 526 1.002001E5
526 527 -4.959955E4
527 526 -5.060055E4
527 527 1.002001E5
527 528 -4.959955E4
528 527 -5.060055E4
528 528 1.002001E5
528 529 -4.959955E4
529 528 -5.060055E4
529 529 1.002001E5
529 530 -4.959955E4
530 529 -5.060055E4
530 530 1.002001E5
530 531 -4.959955E4
531 530 -5.060055E4
531 531 1.002001E5
531 532 -4.959955E4
532 531 -5.060055E4
532 532 1.002001E5
532 533 -4.959955E4
533 532 -5.060055E4
533 533 1.002001E5
533 534 -4.959955E4
534 533 -5.060055E4
534 534 1.002001E5
534 535 -4.959955E4
535 534 -5.060055E4
535 535 1.002001E5
535 536 -4.959955E4
536 535 -5.060055E4
536 536 1.002001E5
536 537 -4.959955E4
537 536 -5.060055E4
537 537 1.002001E5
537 538 -4.959955E4
538 537 -5.060055E4
538 538 1.002001E5
538 539 -4.959955E4
539 538 -5.060055E4
539 539 1.002001E5
539 540 -4.959955E4
540 539 -5.060055E4
540 540 1.002001E5
540 541 -4.959955E4
541 540 -5.060055E4
541 541 1.002001E5
541 542 -4.959955E4
542 541 -5.060055E4
542 542 1.002001E5
542 543 -4.959955E4
543 542 -5.060055E4
543 543 1.002001E5
543 544 -4.959955E4
544 543 -5.060055E4
544 544 1.002001E5
544 545 -4.959955E4
545 544 -5.060055E4
545 545 1.002001E5
545 546 -4.959955E4
546 545 -5.060055E4
546 546 1.002001E5
546 547 -4.959955E4
547 546 -5.060055E4
547 547 1.002001E5
547 548 -4.959955E4
548 547 -5.060055E4
548 548 1.002001E5
548 549 -4.959955E4
549 548 -5.060055E4
549 549 1.002001E5
549 550 -4.959955E4
550 549 -5.060055E4
550 550 1.002001E5
550 551 -4.959955E4
551 550 -5.060055E4
551 551 1.002001E5
551 552 -4.959955E4
552 551 -5.060055E4
552 552 1.002001E5
552 553 -4.959955E4
553 552 -5.060055E4
553 553 1.002001E5
553 554 -4.959955E4
554 553 -5.060055E4
554 554 1.002001E5
554 555 -4.959955E4
555 554 -5.060055E4
555 555 1.002001E5
555 556 -4.959955E4
556 555 -5.060055E4
556 556 1.002001E5
556 557 -4.959955E4
557 556 -5.060055E4
557 557 1.002001E5
557 558 -4.959955E4
558 557 -5.060055E4
558 558 1.002001E5
558 559 -4.959955E4
559 558 -5.060055E4
559 559 1.002001E5
559 560 -4.959955E4
560 559 -5.060055E4
560 560 1.002001E5
560 561 -4.959955E4
561 560 -5.060055E4
561 561 1.002001E5
561 562 -4.959955E4
562 561 -5.060055E4
562 562 1.002001E5
562 563 -4.959955E4
563 562 -5.060055E4
563 563 1.002001E5
563 564 -4.959955E4
564 563 -5.060055E4
564 564 1.002001E5
564 565 -4.959955E4
565 564 -5.060055E4
565 565 1.002001E5
565 566 -4.959955E4
566 565 -5.060055E4
566 566 1.002001E5
566 567 -4.959955E4
567 566 -5.060055E4
567 567 1.002001E5
567 568 -4.959955E4
568 567 -5.060055E4
568 568 1.002001E5
568 569 -4.959955E4
569 568 -5.060055E4
569 569 1.002001E5
569 570 -4.959955E4
570 569 -5.060055E4
570 570 1.002001E5
570 571 -4.959955E4
571 570 -5.060055E4
571 571 1.002001E5
571 572 -4.959955E4
572 571 -5.060055E4
572 572 1.002001E5
572 573 -4.959955E4
573 572 -5.060055E4
573 573 1.002001E5
573 574 -4.959955E4
574 573 -5.060055E4
574 574 1.002001E5
574 575 -4.959955E4
575 574 -5.060055E4
575 575 1.002001E5
575 576 -4.959955E4
576 575 -5.060055E4
576 576 1.002001E5
576 577 -4.959955E4
577 576 -5.060055E4
577 577 1.002001E5
577 578 -4.959955E4
578 577 -5.060055E4
578 578 1.002001E5
578 579 -4.959955E4
579 578 -5.060055E4
579 579 1.002001E5
579 580 -4.959955E4
580 579 -5.060055E4
580 580 1.002001E5
580 581 -4.959955E4
581 580 -5.060055E4
581 581 1.002001E5
581 582 -4.959955E4
582 581 -5.060055E4
582 582 1.002001E5
582 583 -4.959955E4
583 582 -5.060055E4
583 583 1.002001E5
583 584 -4.959955E4
584 583 -5.060055E4
584 584 1.002001E5
584 585 -4.959955E4
585 584 -5.060055E4
585 585 1.002001E5
585 586 -4.959955E4
586 585 -5.060055E4
586 586 1.002001E5
586 587 -4.959955E4
587 586 -5.060055E4
587 587 1.002001E5
587 588 -4.959955E4
588 587 -5.060055E4
588 588 1.002001E5
588 589 -4.959955E4
589 588 -5.060055E4
589 589 1.002001E5
589 590 -4.959955E4
590 589 -5.060055E4
590 590 1.002001E5
590 591 -4.959955E4
591 590 -5.060055E4
591 591 1.002001E5
591 592 -4.959955E4
592 591 -5.060055E4
592 592 1.002001E5
592 593 -4.959955E4
593 592 -5.060055E4
593 593 1.002001E5
593 594 -4.959955E4
594 593 -5.060055E4
594 594 1.002001E5
594 595 -4.959955E4
595 594 -5.060055E4
595 595 1.002001E5
595 596 -4.959955E4
596 595 -5.060055E4
596 596 1.002001E5
596 597 -4.959955E4
597 596 -5.060055E4
597 597 1.002001E5
597 598 -4.959955E4
598 597 -5.060055E4
598 598 1.002001E5
598 599 -4.959955E4
599 598 -5.060055E4
599 599 1.002001E5
599 600 -4.959955E4
600 599 -5.060055E4
600 600 1.002001E5
600 601 -4.959955E4
601 600 -5.060055E4
601 601 1.002001E5
601 602 -4.959955E4
602 601 -5.060055E4
602 602 1.002001E5
602 603 -4.959955E4
603 602 -5.060055E4
603 603 1.002001E5
603 604 -4.959955E4
604 603 -5.060055E4
604 604 1.002001E5
604 605 -4.959955E4
605 604 -5.060055E4
605 605 1.002001E5
605 606 -4.959955E4
606 605 -5.060055E4
606 606 1.002001E5
606 607 -4.959955E4
607 606 -5.060055E4
607 607 1.002001E5
607 608 -4.959955E4
608 607 -5.060055E4
608 608 1.002001E5
608 609 -4.959955E4
609 608 -5.060055E4
609 609 1.002001E5
609 610 -4.959955E4
610 609 -5.060055E4
610 610 1.002001E5
610 611 -4.959955E4
611 610 -5.060055E4
611 611 1.002001E5
611 612 -4.959955E4
612 611 -5.060055E4
612 612 1.002001E5
612 613 -4.959955E4
613 612 -5.060055E4
613 613 1.002001E5
613 614 -4.959955E4
614 613 -5.060055E4
614 614 1.002001E5
614 615 -4.959955E4
615 614 -5.060055E4
615 615 1.002001E5
615 616 -4.959955E4
616 615 -5.060055E4
616 616 1.002001E5
616 617 -4.959955E4
617 616 -5.060055E4
617 617 1.002001E5
617 618 -4.959955E4
618 617 -5.060055E4
618 618 1.002001E5
618 619 -4.959955E4
619 618 -5.060055E4
619 619 1.002001E5
619 620 -4.959955E4
620 619 -5.060055E4
620 620 1.002001E5
620 621 -4.959955E4
621 620 -5.060055E4
621 621 1.002001E5
621 622 -4.959955E4
622 621 -5.060055E4
622 622 1.002001E5
622 623 -4.959955E4
623 622 -5.060055E4
623 623 1.002001E5
623 624 -4.959955E4
624 623 -5.060055E4
624 624 1.002001E5
624 625 -4.959955E4
625 624 -5.060055E4
625 625 1.002001E5
625 626 -4.959955E4
626 625 -5.060055E4
626 626 1.002001E5
626 627 -4.959955E4
627 626 -5.060055E4
627 627 1.002001E5
627 628 -4.959955E4
628 627 -5.060055E4
628 628 1.002001E5
628 629 -4.959955E4
629 628 -5.060055E4
629 629 1.002001E5
629 630 -4.959955E4
630 629 -5.060055E4
630 630 1.002001E5
630 631 -4.959955E4
631 630 -5.060055E4
631 631 1.002001E5
631 632 -4.959955E4
632 631 -5.060055E4
632 632 1.002001E5
632 633 -4.959955E4
633 632 -5.060055E4
633 633 1.002001E5
633 634 -4.959955E4
634 633 -5.060055E4
634 634 1.002001E5
634 635 -4.959955E4
635 634 -5.060055E4
635 635 1.002001E5
635 636 -4.959955E4
636 635 -5.060055E4
636 636 1.002001E5
636 637 -4.959955E4
637 636 -5.060055E4
637 637 1.002001E5
637 638 -4.959955E4
638 637 -5.060055E4
638 638 1.002001E5
638 639 -4.959955E4
639 638 -5.060055E4
639 639 1.002001E5
639 640 -4.959955E4
640 639 -5.060055E4
640 640 1.002001E5
640 641 -4.959955E4
641 640 -5.060055E4
641 641 1.002001E5
641 642 -4.959955E4
642 641 -5.060055E4
642 642 1.002001E5
642 643 -4.959955E4
643 642 -5.060055E4
643 643 1.002001E5
643 644 -4.959955E4
644 643 -5.060055E4
644 644 1.002001E5
644 645 -4.959955E4
645 644 -5.060055E4
645 645 1.002001E5
645 646 -4.959955E4
646 645 -5.060055E4
646 646 1.002001E5
646 647 -4.959955E4
647 646 -5.060055E4
647 647 1.002001E5
647 648 -4.959955E4
648 647 -5.060055E4
648 648 1.002001E5
648 649 -4.959955E4
649 648 -5.060055E4
649 649 1.002001E5
649 650 -4.959955E4
650 649 -5.060055E4
650 650 1.002001E5
650 651 -4.959955E4
651 650 -5.060055E4
651 651 1.002001E5
651 652 -4.959955E4
652 651 -5.060055E4
652 652 1.002001E5
652 653 -4.959955E4
653 652 -5.060055E4
653 653 1.002001E5
653 654 -4.959955E4
654 653 -5.060055E4
654 654 1.002001E5
654 655 -4.959955E4
655 654 -5.060055E4
655 655 1.002001E5
655 656 -4.959955E4
656 655 -5.060055E4
656 656 1.002001E5
656 657 -4.959955E4
657 656 -5.060055E4
657 657 1.002001E5
657 658 -4.959955E4
658 657 -5.060055E4
658 658 1.002001E5
658 659 -4.959955E4
659 658 -5.060055E4
659 659 1.002001E5
659 660 -4.959955E4
660 659 -5.060055E4
660 660 1.002001E5
660 661 -4.959955E4
661 660 -5.060055E4
661 661 1.002001E5
661 662 -4.959955E4
662 661 -5.060055E4
662 662 1.002001E5
662 663 -4.959955E4
663 662 -5.060055E4
663 663 1.002001E5
663 664 -4.959955E4
664 663 -5.060055E4
664 664 1.002001E5
664 665 -4.959955E4
665 664 -5.060055E4
665 665 1.002001E5
665 666 -4.959955E4
666 665 -5.060055E4
666 666 1.002001E5
666 667 -4.959955E4
667 666 -5.060055E4
667 667 1.002001E5
667 668 -4.959955E4
668 667 -5.060055E4
668 668 1.002001E5
668 669 -4.959955E4
669 668 -5.060055E4
669 669 1.002001E5
669 670 -4.959955E4
670 669 -5.060055E4
670 670 1.002001E5
670 671 -4.959955E4
671 670 -5.060055E4
671 671 1.002001E5
671 672 -4.959955E4
672 671 -5.060055E4
672 672 1.002001E5
672 673 -4.959955E4
673 672 -5.060055E4
673 673 1.002001E5
673 674 -4.959955E4
674 673 -5.060055E4
674 674 1.002001E5
674 675 -4.959955E4
675 674 -5.060055E4
675 675 1.002001E5
675 676 -4.959955E4
676 675 -5.060055E4
676 676 1.002001E5
676 677 -4.959955E4
677 676 -5.060055E4
677 677 1.002001E5
677 678 -4.959955E4
678 677 -5.060055E4
678 678 1.002001E5
678 679 -4.959955E4
679 678 -5.060055E4
679 679 1.002001E5
679 680 -4.959955E4
680 679 -5.060055E4
680 680 1.002001E5
680 681 -4.959955E4
681 680 -5.060055E4
681 681 1.002001E5
681 682 -4.959955E4
682 681 -5.060055E4
682 682 1.002001E5
682 683 -4.959955E4
683 682 -5.060055E4
683 683 1.002001E5
683 684 -4.959955E4
684 683 -5.060055E4
684 684 1.002001E5
684 685 -4.959955E4
685 684 -5.060055E4
685 685 1.002001E5
685 686 -4.959955E4
686 685 -5.060055E4
686 686 1.002001E5
686 687 -4.959955E4
687 686 -5.060055E4
687 687 1.002001E5
687 688 -4.959955E4
688 687 -5.060055E4
688 688 1.002001E5
688 689 -4.959955E4
689 688 -5.060055E4
689 689 1.002001E5
689 690 -4.959955E4
690 689 -5.060055E4
690 690 1.002001E5
690 691 -4.959955E4
691 690 -5.060055E4
691 691 1.002001E5
691 692 -4.959955E4
692 691 -5.060055E4
692 692 1.002001E5
692 693 -4.959955E4
693 692 -5.060055E4
693 693 1.002001E5
693 694 -4.959955E4
694 693 -5.060055E4
694 694 1.002001E5
694 695 -4.959955E4
695 694 -5.060055E4
695 695 1.002001E5
695 696 -4.959955E4
696 695 -5.060055E4
696 696 1.002001E5
696 697 -4.959955E4
697 696 -5.060055E4
697 697 1.002001E5
697 698 -4.959955E4
698 697 -5.060055E4
698 698 1.002001E5
698 699 -4.959955E4
699 698 -5.060055E4
699 699 1.002001E5
699 700 -4.959955E4
700 699 -5.060055E4
700 700 1.002001E5
700 701 -4.959955E4
701 700 -5.060055E4
701 701 1.002001E5
701 702 -4.959955E4
702 701 -5.060055E4
702 702 1.002001E5
702 703 -4.959955E4
703 702 -5.060055E4
703 703 1.002001E5
703 704 -4.959955E4
704 703 -5.060055E4
704 704 1.002001E5
704 705 -4.959955E4
705 704 -5.060055E4
705 705 1.002001E5
705 706 -4.959955E4
706 705 -5.060055E4
706 706 1.002001E5
706 707 -4.959955E4
707 706 -5.060055E4
707 707 1.002001E5
707 708 -4.959955E4
708 707 -5.060055E4
708 708 1.002001E5
708 709 -4.959955E4
709 708 -5.060055E4
709 709 1.002001E5
709 710 -4.959955E4
710 709 -5.060055E4
710 710 1.002001E5
710 711 -4.959955E4
711 710 -5.060055E4
711 711 1.002001E5
711 712 -4.959955E4
712 711 -5.060055E4
712 712 1.002001E5
712 713 -4.959955E4
713 712 -5.060055E4
713 713 1.002001E5
713 714 -4.959955E4
714 713 -5.060055E4
714 714 1.002001E5
714 715 -4.959955E4
715 714 -5.060055E4
715 715 1.002001E5
715 716 -4.959955E4
716 715 -5.060055E4
716 716 1.002001E5
716 717 -4.959955E4
717 716 -5.060055E4
717 717 1.002001E5
717 718 -4.959955E4
718 717 -5.060055E4
718 718 1.002001E5
718 719 -4.959955E4
719 718 -5.060055E4
719 719 1.002001E5
719 720 -4.959955E4
720 719 -5.060055E4
720 720 1.002001E5
720 721 -4.959955E4
721 720 -5.060055E4
721 721 1.002001E5
721 722 -4.959955E4
722 721 -5.060055E4
722 722 1.002001E5
722 723 -4.959955E4
723 722 -5.060055E4
723 723 1.002001E5
723 724 -4.959955E4
724 723 -5.060055E4
724 724 1.002001E5
724 725 -4.959955E4
725 724 -5.060055E4
725 725 1.002001E5
725 726 -4.959955E4
726 725 -5.060055E4
726 726 1.002001E5
726 727 -4.959955E4
727 726 -5.060055E4
727 727 1.002001E5
727 728 -4.959955E4
728 727 -5.060055E4
728 728 1.002001E5
728 729 -4.959955E4
729 728 -5.060055E4
729 729 1.002001E5
729 730 -4.959955E4
730 729 -5.060055E4
730 730 1.002001E5
730 731 -4.959955E4
731 730 -5.060055E4
731 731 1.002001E5
731 732 -4.959955E4
732 731 -5.060055E4
732 732 1.002001E5
732 733 -4.959955E4
733 732 -5.060055E4
733 733 1.002001E5
733 734 -4.959955E4
734 733 -5.060055E4
734 734 1.002001E5
734 735 -4.959955E4
735 734 -5.060055E4
735 735 1.002001E5
735 736 -4.959955E4
736 735 -5.060055E4
736 736 1.002001E5
736 737 -4.959955E4
737 736 -5.060055E4
737 737 1.002001E5
737 738 -4.959955E4
738 737 -5.060055E4
738 738 1.002001E5
738 739 -4.959955E4
739 738 -5.060055E4
739 739 1.002001E5
739 740 -4.959955E4
740 739 -5.060055E4
740 740 1.002001E5
740 741 -4.959955E4
741 740 -5.060055E4
741 741 1.002001E5
741 742 -4.959955E4
742 741 -5.060055E4
742 742 1.002001E5
742 743 -4.959955E4
743 742 -5.060055E4
743 743 1.002001E5
743 744 -4.959955E4
744 743 -5.060055E4
744 744 1.002001E5
744 745 -4.959955E4
745 744 -5.060055E4
745 745 1.002001E5
745 746 -4.959955E4
746 745 -5.060055E4
746 746 1.002001E5
746 747 -4.959955E4
747 746 -5.060055E4
747 747 1.002001E5
747 748 -4.959955E4
748 747 -5.060055E4
748 748 1.002001E5
748 749 -4.959955E4
749 748 -5.060055E4
749 749 1.002001E5
749 750 -4.959955E4
750 749 -5.060055E4
750 750 1.002001E5
750 751 -4.959955E4
751 750 -5.060055E4
751 751 1.002001E5
751 752 -4.959955E4
752 751 -5.060055E4
752 752 1.002001E5
752 753 -4.959955E4
753 752 -5.060055E4
753 753 1.002001E5
753 754 -4.959955E4
754 753 -5.060055E4
754 754 1.002001E5
754 755 -4.959955E4
755 754 -5.060055E4
755 755 1.002001E5
755 756 -4.959955E4
756 755 -5.060055E4
756 756 1.002001E5
756 757 -4.959955E4
757 756 -5.060055E4
757 757 1.002001E5
757 758 -4.959955E4
758 757 -5.060055E4
758 758 1.002001E5
758 759 -4.959955E4
759 758 -5.060055E4
759 759 1.002001E5
759 760 -4.959955E4
760 759 -5.060055E4
760 760 1.002001E5
760 761 -4.959955E4
761 760 -5.060055E4
761 761 1.002001E5
761 762 -4.959955E4
762 761 -5.060055E4
762 762 1.002001E5
762 763 -4.959955E4
763 762 -5.060055E4
763 763 1.002001E5
763 764 -4.959955E4
764 763 -5.060055E4
764 764 1.002001E5
764 765 -4.959955E4
765 764 -5.060055E4
765 765 1.002001E5
765 766 -4.959955E4
766 765 -5.060055E4
766 766 1.002001E5
766 767 -4.959955E4
767 766 -5.060055E4
767 767 1.002001E5
767 768 -4.959955E4
768 767 -5.060055E4
768 768 1.002001E5
768 769 -4.959955E4
769 768 -5.060055E4
769 769 1.002001E5
769 770 -4.959955E4
770 769 -5.060055E4
770 770 1.002001E5
770 771 -4.959955E4
771 770 -5.060055E4
771 771 1.002001E5
771 772 -4.959955E4
772 771 -5.060055E4
772 772 1.002001E5
772 773 -4.959955E4
773 772 -5.060055E4
773 773 1.002001E5
773 774 -4.959955E4
774 773 -5.060055E4
774 774 1.002001E5
774 775 -4.959955E4
775 774 -5.060055E4
775 775 1.002001E5
775 776 -4.959955E4
776 775 -5.060055E4
776 776 1.002001E5
776 777 -4.959955E4
777 776 -5.060055E4
777 777 1.002001E5
777 778 -4.959955E4
778 777 -5.060055E4
778 778 1.002001E5
778 779 -4.959955E4
779 778 -5.060055E4
779 779 1.002001E5
779 780 -4.959955E4
780 779 -5.060055E4
780 780 1.002001E5
780 781 -4.959955E4
781 780 -5.060055E4
781 781 1.002001E5
781 782 -4.959955E4
782 781 -5.060055E4
782 782 1.002001E5
782 783 -4.959955E4
783 782 -5.060055E4
783 783 1.002001E5
783 784 -4.959955E4
784 783 -5.060055E4
784 784 1.002001E5
784 785 -4.959955E4
785 784 -5.060055E4
785 785 1.002001E5
785 786 -4.959955E4
786 785 -5.060055E4
786 786 1.002001E5
786 787 -4.959955E4
787 786 -5.060055E4
787 787 1.002001E5
787 788 -4.959955E4
788 787 -5.060055E4
788 788 1.002001E5
788 789 -4.959955E4
789 788 -5.060055E4
789 789 1.002001E5
789 790 -4.959955E4
790 789 -5.060055E4
790 790 1.002001E5
790 791 -4.959955E4
791 790 -5.060055E4
791 791 1.002001E5
791 792 -4.959955E4
792 791 -5.060055E4
792 792 1.002001E5
792 793 -4.959955E4
793 792 -5.060055E4
793 793 1.002001E5
793 794 -4.959955E4
794 793 -5.060055E4
794 794 1.002001E5
794 795 -4.959955E4
795 794 -5.060055E4
795 795 1.002001E5
795 796 -4.959955E4
796 795 -5.060055E4
796 796 1.002001E5
796 797 -4.959955E4
797 796 -5.060055E4
797 797 1.002001E5
797 798 -4.959955E4
798 797 -5.060055E4
798 798 1.002001E5
798 799 -4.959955E4
799 798 -5.060055E4
799 799 1.002001E5
799 800 -4.959955E4
800 799 -5.060055E4
800 800 1.002001E5
800 801 -4.959955E4
801 800 -5.060055E4
801 801 1.002001E5
801 802 -4.959955E4
802 801 -5.060055E4
802 802 1.002001E5
802 803 -4.959955E4
803 802 -5.060055E4
803 803 1.002001E5
803 804 -4.959955E4
804 803 -5.060055E4
804 804 1.002001E5
804 805 -4.959955E4
805 804 -5.060055E4
805 805 1.002001E5
805 806 -4.959955E4
806 805 -5.060055E4
806 806 1.002001E5
806 807 -4.959955E4
807 806 -5.060055E4
807 807 1.002001E5
807 808 -4.959955E4
808 807 -5.060055E4
808 808 1.002001E5
808 809 -4.959955E4
809 808 -5.060055E4
809 809 1.002001E5
809 810 -4.959955E4
810 809 -5.060055E4
810 810 1.002001E5
810 811 -4.959955E4
811 810 -5.060055E4
811 811 1.002001E5
811 812 -4.959955E4
812 811 -5.060055E4
812 812 1.002001E5
812 813 -4.959955E4
813 812 -5.060055E4
813 813 1.002001E5
813 814 -4.959955E4
814 813 -5.060055E4
814 814 1.002001E5
814 815 -4.959955E4
815 814 -5.060055E4
815 815 1.002001E5
815 816 -4.959955E4
816 815 -5.060055E4
816 816 1.002001E5
816 817 -4.959955E4
817 816 -5.060055E4
817 817 1.002001E5
817 818 -4.959955E4
818 817 -5.060055E4
818 818 1.002001E5
818 819 -4.959955E4
819 818 -5.060055E4
819 819 1.002001E5
819 820 -4.959955E4
820 819 -5.060055E4
820 820 1.002001E5
820 821 -4.959955E4
821 820 -5.060055E4
821 821 1.002001E5
821 822 -4.959955E4
822 821 -5.060055E4
822 822 1.002001E5
822 823 -4.959955E4
823 822 -5.060055E4
823 823 1.002001E5
823 824 -4.959955E4
824 823 -5.060055E4
824 824 1.002001E5
824 825 -4.959955E4
825 824 -5.060055E4
825 825 1.002001E5
825 826 -4.959955E4
826 825 -5.060055E4
826 826 1.002001E5
826 827 -4.959955E4
827 826 -5.060055E4
827 827 1.002001E5
827 828 -4.959955E4
828 827 -5.060055E4
828 828 1.002001E5
828 829 -4.959955E4
829 828 -5.060055E4
829 829 1.002001E5
829 830 -4.959955E4
830 829 -5.060055E4
830 830 1.002001E5
830 831 -4.959955E4
831 830 -5.060055E4
831 831 1.002001E5
831 832 -4.959955E4
832 831 -5.060055E4
832 832 1.002001E5
832 833 -4.959955E4
833 832 -5.060055E4
833 833 1.002001E5
833 834 -4.959955E4
834 833 -5.060055E4
834 834 1.002001E5
834 835 -4.959955E4
835 834 -5.060055E4
835 835 1.002001E5
835 836 -4.959955E4
836 835 -5.060055E4
836 836 1.002001E5
836 837 -4.959955E4
837 836 -5.060055E4
837 837 1.002001E5
837 838 -4.959955E4
838 837 -5.060055E4
838 838 1.002001E5
838 839 -4.959955E4
839 838 -5.060055E4
839 839 1.002001E5
839 840 -4.959955E4
840 839 -5.060055E4
840 840 1.002001E5
840 841 -4.959955E4
841 840 -5.060055E4
841 841 1.002001E5
841 842 -4.959955E4
842 841 -5.060055E4
842 842 1.002001E5
842 843 -4.959955E4
843 842 -5.060055E4
843 843 1.002001E5
843 844 -4.959955E4
844 843 -5.060055E4
844 844 1.002001E5
844 845 -4.959955E4
845 844 -5.060055E4
845 845 1.002001E5
845 846 -4.959955E4
846 845 -5.060055E4
846 846 1.002001E5
846 847 -4.959955E4
847 846 -5.060055E4
847 847 1.002001E5
847 848 -4.959955E4
848 847 -5.060055E4
848 848 1.002001E5
848 849 -4.959955E4
849 848 -5.060055E4
849 849 1.002001E5
849 850 -4.959955E4
850 849 -5.060055E4
850 850 1.002001E5
850 851 -4.959955E4
851 850 -5.060055E4
851 851 1.002001E5
851 852 -4.959955E4
852 851 -5.060055E4
852 852 1.002001E5
852 853 -4.959955E4
853 852 -5.060055E4
853 853 1.002001E5
853 854 -4.959955E4
854 853 -5.060055E4
854 854 1.002001E5
854 855 -4.959955E4
855 854 -5.060055E4
855 855 1.002001E5
855 856 -4.959955E4
856 855 -5.060055E4
856 856 1.002001E5
856 857 -4.959955E4
857 856 -5.060055E4
857 857 1.002001E5
857 858 -4.959955E4
858 857 -5.060055E4
858 858 1.002001E5
858 859 -4.959955E4
859 858 -5.060055E4
859 859 1.002001E5
859 860 -4.959955E4
860 859 -5.060055E4
860 860 1.002001E5
860 861 -4.959955E4
861 860 -5.060055E4
861 861 1.002001E5
861 862 -4.959955E4
862 861 -5.060055E4
862 862 1.002001E5
862 863 -4.959955E4
863 862 -5.060055E4
863 863 1.002001E5
863 864 -4.959955E4
864 863 -5.060055E4
864 864 1.002001E5
864 865 -4.959955E4
865 864 -5.060055E4
865 865 1.002001E5
865 866 -4.959955E4
866 865 -5.060055E4
866 866 1.002001E5
866 867 -4.959955E4
867 866 -5.060055E4
867 867 1.002001E5
867 868 -4.959955E4
868 867 -5.060055E4
868 868 1.002001E5
868 869 -4.959955E4
869 868 -5.060055E4
869 869 1.002001E5
869 870 -4.959955E4
870 869 -5.060055E4
870 870 1.002001E5
870 871 -4.959955E4
871 870 -5.060055E4
871 871 1.002001E5
871 872 -4.959955E4
872 871 -5.060055E4
872 872 1.002001E5
872 873 -4.959955E4
873 872 -5.060055E4
873 873 1.002001E5
873 874 -4.959955E4
874 873 -5.060055E4
874 874 1.002001E5
874 875 -4.959955E4
875 874 -5.060055E4
875 875 1.002001E5
875 876 -4.959955E4
876 875 -5.060055E4
876 876 1.002001E5
876 877 -4.959955E4
877 876 -5.060055E4
877 877 1.002001E5
877 878 -4.959955E4
878 877 -5.060055E4
878 878 1.002001E5
878 879 -4.959955E4
879 878 -5.060055E4
879 879 1.002001E5
879 880 -4.959955E4
880 879 -5.060055E4
880 880 1.002001E5
880 881 -4.959955E4
881 880 -5.060055E4
881 881 1.002001E5
881 882 -4.959955E4
882 881 -5.060055E4
882 882 1.002001E5
882 883 -4.959955E4
883 882 -5.060055E4
883 883 1.002001E5
883 884 -4.959955E4
884 883 -5.060055E4
884 884 1.002001E5
884 885 -4.959955E4
885 884 -5.060055E4
885 885 1.002001E5
885 886 -4.959955E4
886 885 -5.060055E4
886 886 1.002001E5
886 887 -4.959955E4
887 886 -5.060055E4
887 887 1.002001E5
887 888 -4.959955E4
888 887 -5.060055E4
888 888 1.002001E5
888 889 -4.959955E4
889 888 -5.060055E4
889 889 1.002001E5
889 890 -4.959955E4
890 889 -5.060055E4
890 890 1.002001E5
890 891 -4.959955E4
891 890 -5.060055E4
891 891 1.002001E5
891 892 -4.959955E4
892 891 -5.060055E4
892 892 1.002001E5
892 893 -4.959955E4
893 892 -5.060055E4
893 893 1.002001E5
893 894 -4.959955E4
894 893 -5.060055E4
894 894 1.002001E5
894 895 -4.959955E4
895 894 -5.060055E4
895 895 1.002001E5
895 896 -4.959955E4
896 895 -5.060055E4
896 896 1.002001E5
896 897 -4.959955E4
897 896 -5.060055E4
897 897 1.002001E5
897 898 -4.959955E4
898 897 -5.060055E4
898 898 1.002001E5
898 899 -4.959955E4
899 898 -5.060055E4
899 899 1.002001E5
899 900 -4.959955E4
900 899 -5.060055E4
900 900 1.002001E5
900 901 -4.959955E4
901 900 -5.060055E4
901 901 1.002001E5
901 902 -4.959955E4
902 901 -5.060055E4
902 902 1.002001E5
902 903 -4.959955E4
903 902 -5.060055E4
903 903 1.002001E5
903 904 -4.959955E4
904 903 -5.060055E4
904 904 1.002001E5
904 905 -4.959955E4
905 904 -5.060055E4
905 905 1.002001E5
905 906 -4.959955E4
906 905 -5.060055E4
906 906 1.002001E5
906 907 -4.959955E4
907 906 -5.060055E4
907 907 1.002001E5
907 908 -4.959955E4
908 907 -5.060055E4
908 908 1.002001E5
908 909 -4.959955E4
909 908 -5.060055E4
909 909 1.002001E5
909 910 -4.959955E4
910 909 -5.060055E4
910 910 1.002001E5
910 911 -4.959955E4
911 910 -5.060055E4
911 911 1.002001E5
911 912 -4.959955E4
912 911 -5.060055E4
912 912 1.002001E5
912 913 -4.959955E4
913 912 -5.060055E4
913 913 1.002001E5
913 914 -4.959955E4
914 913 -5.060055E4
914 914 1.002001E5
914 915 -4.959955E4
915 914 -5.060055E4
915 915 1.002001E5
915 916 -4.959955E4
916 915 -5.060055E4
916 916 1.002001E5
916 917 -4.959955E4
917 916 -5.060055E4
917 917 1.002001E5
917 918 -4.959955E4
918 917 -5.060055E4
918 918 1.002001E5
918 919 -4.959955E4
919 918 -5.060055E4
919 919 1.002001E5
919 920 -4.959955E4
920 919 -5.060055E4
920 920 1.002001E5
920 921 -4.959955E4
921 920 -5.060055E4
921 921 1.002001E5
921 922 -4.959955E4
922 921 -5.060055E4
922 922 1.002001E5
922 923 -4.959955E4
923 922 -5.060055E4
923 923 1.002001E5
923 924 -4.959955E4
924 923 -5.060055E4
924 924 1.002001E5
924 925 -4.959955E4
925 924 -5.060055E4
925 925 1.002001E5
925 926 -4.959955E4
926 925 -5.060055E4
926 926 1.002001E5
926 927 -4.959955E4
927 926 -5.060055E4
927 927 1.002001E5
927 928 -4.959955E4
928 927 -5.060055E4
928 928 1.002001E5
928 929 -4.959955E4
929 928 -5.060055E4
929 929 1.002001E5
929 930 -4.959955E4
930 929 -5.060055E4
930 930 1.002001E5
930 931 -4.959955E4
931 930 -5.060055E4
931 931 1.002001E5
931 932 -4.959955E4
932 931 -5.060055E4
932 932 1.002001E5
932 933 -4.959955E4
933 932 -5.060055E4
933 933 1.002001E5
933 934 -4.959955E4
934 933 -5.060055E4
934 934 1.002001E5
934 935 -4.959955E4
935 934 -5.060055E4
935 935 1.002001E5
935 936 -4.959955E4
936 935 -5.060055E4
936 936 1.002001E5
936 937 -4.959955E4
937 936 -5.060055E4
937 937 1.002001E5
937 938 -4.959955E4
938 937 -5.060055E4
938 938 1.002001E5
938 939 -4.959955E4
939 938 -5.060055E4
939 939 1.002001E5
939 940 -4.959955E4
940 939 -5.060055E4
940 940 1.002001E5
940 941 -4.959955E4
941 940 -5.060055E4
941 941 1.002001E5
941 942 -4.959955E4
942 941 -5.060055E4
942 942 1.002001E5
942 943 -4.959955E4
943 942 -5.060055E4
943 943 1.002001E5
943 944 -4.959955E4
944 943 -5.060055E4
944 944 1.002001E5
944 945 -4.959955E4
945 944 -5.060055E4
945 945 1.002001E5
945 946 -4.959955E4
946 945 -5.060055E4
946 946 1.002001E5
946 947 -4.959955E4
947 946 -5.060055E4
947 947 1.002001E5
947 948 -4.959955E4
948 947 -5.060055E4
948 948 1.002001E5
948 949 -4.959955E4
949 948 -5.060055E4
949 949 1.002001E5
949 950 -4.959955E4
950 949 -5.060055E4
950 950 1.002001E5
950 951 -4.959955E4
951 950 -5.060055E4
951 951 1.002001E5
951 952 -4.959955E4
952 951 -5.060055E4
952 952 1.002001E5
952 953 -4.959955E4
953 952 -5.060055E4
953 953 1.002001E5
953 954 -4.959955E4
954 953 -5.060055E4
954 954 1.002001E5
954 955 -4.959955E4
955 954 -5.060055E4
955 955 1.002001E5
955 956 -4.959955E4
956 955 -5.060055E4
956 956 1.002001E5
956 957 -4.959955E4
957 956 -5.060055E4
957 957 1.002001E5
957 958 -4.959955E4
958 957 -5.060055E4
958 958 1.002001E5
958 959 -4.959955E4
959 958 -5.060055E4
959 959 1.002001E5
959 960 -4.959955E4
960 959 -5.060055E4
960 960 1.002001E5
960 961 -4.959955E4
961 960 -5.060055E4
961 961 1.002001E5
961 962 -4.959955E4
962 961 -5.060055E4
962 962 1.002001E5
962 963 -4.959955E4
963 962 -5.060055E4
963 963 1.002001E5
963 964 -4.959955E4
964 963 -5.060055E4
964 964 1.002001E5
964 965 -4.959955E4
965 964 -5.060055E4
965 965 1.002001E5
965 966 -4.959955E4
966 965 -5.060055E4
966 966 1.002001E5
966 967 -4.959955E4
967 966 -5.060055E4
967 967 1.002001E5
967 968 -4.959955E4
968 967 -5.060055E4
968 968 1.002001E5
968 969 -4.959955E4
969 968 -5.060055E4
969 969 1.002001E5
969 970 -4.959955E4
970 969 -5.060055E4
970 970 1.002001E5
970 971 -4.959955E4
971 970 -5.060055E4
971 971 1.002001E5
971 972 -4.959955E4
972 971 -5.060055E4
972 972 1.002001E5
972 973 -4.959955E4
973 972 -5.060055E4
973 973 1.002001E5
973 974 -4.959955E4
974 973 -5.060055E4
974 974 1.002001E5
974 975 -4.959955E4
975 974 -5.060055E4
975 975 1.002001E5
975 976 -4.959955E4
976 975 -5.060055E4
976 976 1.002001E5
976 977 -4.959955E4
977 976 -5.060055E4
977 977 1.002001E5
977 978 -4.959955E4
978 977 -5.060055E4
978 978 1.002001E5
978 979 -4.959955E4
979 978 -5.060055E4
979 979 1.002001E5
979 980 -4.959955E4
980 979 -5.060055E4
980 980 1.002001E5
980 981 -4.959955E4
981 980 -5.060055E4
981 981 1.002001E5
981 982 -4.959955E4
982 981 -5.060055E4
982 982 1.002001E5
982 983 -4.959955E4
983 982 -5.060055E4
983 983 1.002001E5
983 984 -4.959955E4
984 983 -5.060055E4
984 984 1.002001E5
984 985 -4.959955E4
985 984 -5.060055E4
985 985 1.002001E5
985 986 -4.959955E4
986 985 -5.060055E4
986 986 1.002001E5
986 987 -4.959955E4
987 986 -5.060055E4
987 987 1.002001E5
987 988 -4.959955E4
988 987 -5.060055E4
988 988 1.002001E5
988 989 -4.959955E4
989 988 -5.060055E4
989 989 1.002001E5
989 990 -4.959955E4
990 989 -5.060055E4
990 990 1.002001E5
990 991 -4.959955E4
991 990 -5.060055E4
991 991 1.002001E5
991 992 -4.959955E4
992 991 -5.060055E4
992 992 1.002001E5
992 993 -4.959955E4
993 992 -5.060055E4
993 993 1.002001E5
993 994 -4.959955E4
994 993 -5.060055E4
994 994 1.002001E5
994 995 -4.959955E4
995 994 -5.060055E4
995 995 1.002001E5
995 996 -4.959955E4
996 995 -5.060055E4
996 996 1.002001E5
996 997 -4.959955E4
997 996 -5.060055E4
997 997 1.002001E5
997 998 -4.959955E4
998 997 -5.060055E4
998 998 1.002001E5
998 999 -4.959955E4
999 998 -5.060055E4
999 999 1.002001E5
999 1000 -4.959955E4
1000 999 -5.060055E4
1000 1000 1.002001E5
