%%MatrixMarket matrix coordinate real general
%
1500 1500 4498
1 1 6.759002999999999E5
1 2 -3.3719964999999997E5
2 1 -3.3870064999999997E5
2 2 6.759002999999999E5
2 3 -3.3719964999999997E5
3 2 -3.3870064999999997E5
3 3 6.759002999999999E5
3 4 -3.3719964999999997E5
4 3 -3.3870064999999997E5
4 4 6.759002999999999E5
4 5 -3.3719964999999997E5
5 4 -3.3870064999999997E5
5 5 6.759002999999999E5
5 6 -3.3719964999999997E5
6 5 -3.3870064999999997E5
6 6 6.759002999999999E5
6 7 -3.3719964999999997E5
7 6 -3.3870064999999997E5
7 7 6.759002999999999E5
7 8 -3.3719964999999997E5
8 7 -3.3870064999999997E5
8 8 6.759002999999999E5
8 9 -3.3719964999999997E5
9 8 -3.3870064999999997E5
9 9 6.759002999999999E5
9 10 -3.3719964999999997E5
10 9 -3.3870064999999997E5
10 10 6.759002999999999E5
10 11 -3.3719964999999997E5
11 10 -3.3870064999999997E5
11 11 6.759002999999999E5
11 12 -3.3719964999999997E5
12 11 -3.3870064999999997E5
12 12 6.759002999999999E5
12 13 -3.3719964999999997E5
13 12 -3.3870064999999997E5
13 13 6.759002999999999E5
13 14 -3.3719964999999997E5
14 13 -3.3870064999999997E5
14 14 6.759002999999999E5
14 15 -3.3719964999999997E5
15 14 -3.3870064999999997E5
15 15 6.759002999999999E5
15 16 -3.3719964999999997E5
16 15 -3.3870064999999997E5
16 16 6.759002999999999E5
16 17 -3.3719964999999997E5
17 16 -3.3870064999999997E5
17 17 6.759002999999999E5
17 18 -3.3719964999999997E5
18 17 -3.3870064999999997E5
18 18 6.759002999999999E5
18 19 -3.3719964999999997E5
19 18 -3.3870064999999997E5
19 19 6.759002999999999E5
19 20 -3.3719964999999997E5
20 19 -3.3870064999999997E5
20 20 6.759002999999999E5
20 21 -3.3719964999999997E5
21 20 -3.3870064999999997E5
21 21 6.759002999999999E5
21 22 -3.3719964999999997E5
22 21 -3.3870064999999997E5
22 22 6.759002999999999E5
22 23 -3.3719964999999997E5
23 22 -3.3870064999999997E5
23 23 6.759002999999999E5
23 24 -3.3719964999999997E5
24 23 -3.3870064999999997E5
24 24 6.759002999999999E5
24 25 -3.3719964999999997E5
25 24 -3.3870064999999997E5
25 25 6.759002999999999E5
25 26 -3.3719964999999997E5
26 25 -3.3870064999999997E5
26 26 6.759002999999999E5
26 27 -3.3719964999999997E5
27 26 -3.3870064999999997E5
27 27 6.759002999999999E5
27 28 -3.3719964999999997E5
28 27 -3.3870064999999997E5
28 28 6.759002999999999E5
28 29 -3.3719964999999997E5
29 28 -3.3870064999999997E5
29 29 6.759002999999999E5
29 30 -3.3719964999999997E5
30 29 -3.3870064999999997E5
30 30 6.759002999999999E5
30 31 -3.3719964999999997E5
31 30 -3.3870064999999997E5
31 31 6.759002999999999E5
31 32 -3.3719964999999997E5
32 31 -3.3870064999999997E5
32 32 6.759002999999999E5
32 33 -3.3719964999999997E5
33 32 -3.3870064999999997E5
33 33 6.759002999999999E5
33 34 -3.3719964999999997E5
34 33 -3.3870064999999997E5
34 34 6.759002999999999E5
34 35 -3.3719964999999997E5
35 34 -3.3870064999999997E5
35 35 6.759002999999999E5
35 36 -3.3719964999999997E5
36 35 -3.3870064999999997E5
36 36 6.759002999999999E5
36 37 -3.3719964999999997E5
37 36 -3.3870064999999997E5
37 37 6.759002999999999E5
37 38 -3.3719964999999997E5
38 37 -3.3870064999999997E5
38 38 6.759002999999999E5
38 39 -3.3719964999999997E5
39 38 -3.3870064999999997E5
39 39 6.759002999999999E5
39 40 -3.3719964999999997E5
40 39 -3.3870064999999997E5
40 40 6.759002999999999E5
40 41 -3.3719964999999997E5
41 40 -3.3870064999999997E5
41 41 6.759002999999999E5
41 42 -3.3719964999999997E5
42 41 -3.3870064999999997E5
42 42 6.759002999999999E5
42 43 -3.3719964999999997E5
43 42 -3.3870064999999997E5
43 43 6.759002999999999E5
43 44 -3.3719964999999997E5
44 43 -3.3870064999999997E5
44 44 6.759002999999999E5
44 45 -3.3719964999999997E5
45 44 -3.3870064999999997E5
45 45 6.759002999999999E5
45 46 -3.3719964999999997E5
46 45 -3.3870064999999997E5
46 46 6.759002999999999E5
46 47 -3.3719964999999997E5
47 46 -3.3870064999999997E5
47 47 6.759002999999999E5
47 48 -3.3719964999999997E5
48 47 -3.3870064999999997E5
48 48 6.759002999999999E5
48 49 -3.3719964999999997E5
49 48 -3.3870064999999997E5
49 49 6.759002999999999E5
49 50 -3.3719964999999997E5
50 49 -3.3870064999999997E5
50 50 6.759002999999999E5
50 51 -3.3719964999999997E5
51 50 -3.3870064999999997E5
51 51 6.759002999999999E5
51 52 -3.3719964999999997E5
52 51 -3.3870064999999997E5
52 52 6.759002999999999E5
52 53 -3.3719964999999997E5
53 52 -3.3870064999999997E5
53 53 6.759002999999999E5
53 54 -3.3719964999999997E5
54 53 -3.3870064999999997E5
54 54 6.759002999999999E5
54 55 -3.3719964999999997E5
55 54 -3.3870064999999997E5
55 55 6.759002999999999E5
55 56 -3.3719964999999997E5
56 55 -3.3870064999999997E5
56 56 6.759002999999999E5
56 57 -3.3719964999999997E5
57 56 -3.3870064999999997E5
57 57 6.759002999999999E5
57 58 -3.3719964999999997E5
58 57 -3.3870064999999997E5
58 58 6.759002999999999E5
58 59 -3.3719964999999997E5
59 58 -3.3870064999999997E5
59 59 6.759002999999999E5
59 60 -3.3719964999999997E5
60 59 -3.3870064999999997E5
60 60 6.759002999999999E5
60 61 -3.3719964999999997E5
61 60 -3.3870064999999997E5
61 61 6.759002999999999E5
61 62 -3.3719964999999997E5
62 61 -3.3870064999999997E5
62 62 6.759002999999999E5
62 63 -3.3719964999999997E5
63 62 -3.3870064999999997E5
63 63 6.759002999999999E5
63 64 -3.3719964999999997E5
64 63 -3.3870064999999997E5
64 64 6.759002999999999E5
64 65 -3.3719964999999997E5
65 64 -3.3870064999999997E5
65 65 6.759002999999999E5
65 66 -3.3719964999999997E5
66 65 -3.3870064999999997E5
66 66 6.759002999999999E5
66 67 -3.3719964999999997E5
67 66 -3.3870064999999997E5
67 67 6.759002999999999E5
67 68 -3.3719964999999997E5
68 67 -3.3870064999999997E5
68 68 6.759002999999999E5
68 69 -3.3719964999999997E5
69 68 -3.3870064999999997E5
69 69 6.759002999999999E5
69 70 -3.3719964999999997E5
70 69 -3.3870064999999997E5
70 70 6.759002999999999E5
70 71 -3.3719964999999997E5
71 70 -3.3870064999999997E5
71 71 6.759002999999999E5
71 72 -3.3719964999999997E5
72 71 -3.3870064999999997E5
72 72 6.759002999999999E5
72 73 -3.3719964999999997E5
73 72 -3.3870064999999997E5
73 73 6.759002999999999E5
73 74 -3.3719964999999997E5
74 73 -3.3870064999999997E5
74 74 6.759002999999999E5
74 75 -3.3719964999999997E5
75 74 -3.3870064999999997E5
75 75 6.759002999999999E5
75 76 -3.3719964999999997E5
76 75 -3.3870064999999997E5
76 76 6.759002999999999E5
76 77 -3.3719964999999997E5
77 76 -3.3870064999999997E5
77 77 6.759002999999999E5
77 78 -3.3719964999999997E5
78 77 -3.3870064999999997E5
78 78 6.759002999999999E5
78 79 -3.3719964999999997E5
79 78 -3.3870064999999997E5
79 79 6.759002999999999E5
79 80 -3.3719964999999997E5
80 79 -3.3870064999999997E5
80 80 6.759002999999999E5
80 81 -3.3719964999999997E5
81 80 -3.3870064999999997E5
81 81 6.759002999999999E5
81 82 -3.3719964999999997E5
82 81 -3.3870064999999997E5
82 82 6.759002999999999E5
82 83 -3.3719964999999997E5
83 82 -3.3870064999999997E5
83 83 6.759002999999999E5
83 84 -3.3719964999999997E5
84 83 -3.3870064999999997E5
84 84 6.759002999999999E5
84 85 -3.3719964999999997E5
85 84 -3.3870064999999997E5
85 85 6.759002999999999E5
85 86 -3.3719964999999997E5
86 85 -3.3870064999999997E5
86 86 6.759002999999999E5
86 87 -3.3719964999999997E5
87 86 -3.3870064999999997E5
87 87 6.759002999999999E5
87 88 -3.3719964999999997E5
88 87 -3.3870064999999997E5
88 88 6.759002999999999E5
88 89 -3.3719964999999997E5
89 88 -3.3870064999999997E5
89 89 6.759002999999999E5
89 90 -3.3719964999999997E5
90 89 -3.3870064999999997E5
90 90 6.759002999999999E5
90 91 -3.3719964999999997E5
91 90 -3.3870064999999997E5
91 91 6.759002999999999E5
91 92 -3.3719964999999997E5
92 91 -3.3870064999999997E5
92 92 6.759002999999999E5
92 93 -3.3719964999999997E5
93 92 -3.3870064999999997E5
93 93 6.759002999999999E5
93 94 -3.3719964999999997E5
94 93 -3.3870064999999997E5
94 94 6.759002999999999E5
94 95 -3.3719964999999997E5
95 94 -3.3870064999999997E5
95 95 6.759002999999999E5
95 96 -3.3719964999999997E5
96 95 -3.3870064999999997E5
96 96 6.759002999999999E5
96 97 -3.3719964999999997E5
97 96 -3.3870064999999997E5
97 97 6.759002999999999E5
97 98 -3.3719964999999997E5
98 97 -3.3870064999999997E5
98 98 6.759002999999999E5
98 99 -3.3719964999999997E5
99 98 -3.3870064999999997E5
99 99 6.759002999999999E5
99 100 -3.3719964999999997E5
100 99 -3.3870064999999997E5
100 100 6.759002999999999E5
100 101 -3.3719964999999997E5
101 100 -3.3870064999999997E5
101 101 6.759002999999999E5
101 102 -3.3719964999999997E5
102 101 -3.3870064999999997E5
102 102 6.759002999999999E5
102 103 -3.3719964999999997E5
103 102 -3.3870064999999997E5
103 103 6.759002999999999E5
103 104 -3.3719964999999997E5
104 103 -3.3870064999999997E5
104 104 6.759002999999999E5
104 105 -3.3719964999999997E5
105 104 -3.3870064999999997E5
105 105 6.759002999999999E5
105 106 -3.3719964999999997E5
106 105 -3.3870064999999997E5
106 106 6.759002999999999E5
106 107 -3.3719964999999997E5
107 106 -3.3870064999999997E5
107 107 6.759002999999999E5
107 108 -3.3719964999999997E5
108 107 -3.3870064999999997E5
108 108 6.759002999999999E5
108 109 -3.3719964999999997E5
109 108 -3.3870064999999997E5
109 109 6.759002999999999E5
109 110 -3.3719964999999997E5
110 109 -3.3870064999999997E5
110 110 6.759002999999999E5
110 111 -3.3719964999999997E5
111 110 -3.3870064999999997E5
111 111 6.759002999999999E5
111 112 -3.3719964999999997E5
112 111 -3.3870064999999997E5
112 112 6.759002999999999E5
112 113 -3.3719964999999997E5
113 112 -3.3870064999999997E5
113 113 6.759002999999999E5
113 114 -3.3719964999999997E5
114 113 -3.3870064999999997E5
114 114 6.759002999999999E5
114 115 -3.3719964999999997E5
115 114 -3.3870064999999997E5
115 115 6.759002999999999E5
115 116 -3.3719964999999997E5
116 115 -3.3870064999999997E5
116 116 6.759002999999999E5
116 117 -3.3719964999999997E5
117 116 -3.3870064999999997E5
117 117 6.759002999999999E5
117 118 -3.3719964999999997E5
118 117 -3.3870064999999997E5
118 118 6.759002999999999E5
118 119 -3.3719964999999997E5
119 118 -3.3870064999999997E5
119 119 6.759002999999999E5
119 120 -3.3719964999999997E5
120 119 -3.3870064999999997E5
120 120 6.759002999999999E5
120 121 -3.3719964999999997E5
121 120 -3.3870064999999997E5
121 121 6.759002999999999E5
121 122 -3.3719964999999997E5
122 121 -3.3870064999999997E5
122 122 6.759002999999999E5
122 123 -3.3719964999999997E5
123 122 -3.3870064999999997E5
123 123 6.759002999999999E5
123 124 -3.3719964999999997E5
124 123 -3.3870064999999997E5
124 124 6.759002999999999E5
124 125 -3.3719964999999997E5
125 124 -3.3870064999999997E5
125 125 6.759002999999999E5
125 126 -3.3719964999999997E5
126 125 -3.3870064999999997E5
126 126 6.759002999999999E5
126 127 -3.3719964999999997E5
127 126 -3.3870064999999997E5
127 127 6.759002999999999E5
127 128 -3.3719964999999997E5
128 127 -3.3870064999999997E5
128 128 6.759002999999999E5
128 129 -3.3719964999999997E5
129 128 -3.3870064999999997E5
129 129 6.759002999999999E5
129 130 -3.3719964999999997E5
130 129 -3.3870064999999997E5
130 130 6.759002999999999E5
130 131 -3.3719964999999997E5
131 130 -3.3870064999999997E5
131 131 6.759002999999999E5
131 132 -3.3719964999999997E5
132 131 -3.3870064999999997E5
132 132 6.759002999999999E5
132 133 -3.3719964999999997E5
133 132 -3.3870064999999997E5
133 133 6.759002999999999E5
133 134 -3.3719964999999997E5
134 133 -3.3870064999999997E5
134 134 6.759002999999999E5
134 135 -3.3719964999999997E5
135 134 -3.3870064999999997E5
135 135 6.759002999999999E5
135 136 -3.3719964999999997E5
136 135 -3.3870064999999997E5
136 136 6.759002999999999E5
136 137 -3.3719964999999997E5
137 136 -3.3870064999999997E5
137 137 6.759002999999999E5
137 138 -3.3719964999999997E5
138 137 -3.3870064999999997E5
138 138 6.759002999999999E5
138 139 -3.3719964999999997E5
139 138 -3.3870064999999997E5
139 139 6.759002999999999E5
139 140 -3.3719964999999997E5
140 139 -3.3870064999999997E5
140 140 6.759002999999999E5
140 141 -3.3719964999999997E5
141 140 -3.3870064999999997E5
141 141 6.759002999999999E5
141 142 -3.3719964999999997E5
142 141 -3.3870064999999997E5
142 142 6.759002999999999E5
142 143 -3.3719964999999997E5
143 142 -3.3870064999999997E5
143 143 6.759002999999999E5
143 144 -3.3719964999999997E5
144 143 -3.3870064999999997E5
144 144 6.759002999999999E5
144 145 -3.3719964999999997E5
145 144 -3.3870064999999997E5
145 145 6.759002999999999E5
145 146 -3.3719964999999997E5
146 145 -3.3870064999999997E5
146 146 6.759002999999999E5
146 147 -3.3719964999999997E5
147 146 -3.3870064999999997E5
147 147 6.759002999999999E5
147 148 -3.3719964999999997E5
148 147 -3.3870064999999997E5
148 148 6.759002999999999E5
148 149 -3.3719964999999997E5
149 148 -3.3870064999999997E5
149 149 6.759002999999999E5
149 150 -3.3719964999999997E5
150 149 -3.3870064999999997E5
150 150 6.759002999999999E5
150 151 -3.3719964999999997E5
151 150 -3.3870064999999997E5
151 151 6.759002999999999E5
151 152 -3.3719964999999997E5
152 151 -3.3870064999999997E5
152 152 6.759002999999999E5
152 153 -3.3719964999999997E5
153 152 -3.3870064999999997E5
153 153 6.759002999999999E5
153 154 -3.3719964999999997E5
154 153 -3.3870064999999997E5
154 154 6.759002999999999E5
154 155 -3.3719964999999997E5
155 154 -3.3870064999999997E5
155 155 6.759002999999999E5
155 156 -3.3719964999999997E5
156 155 -3.3870064999999997E5
156 156 6.759002999999999E5
156 157 -3.3719964999999997E5
157 156 -3.3870064999999997E5
157 157 6.759002999999999E5
157 158 -3.3719964999999997E5
158 157 -3.3870064999999997E5
158 158 6.759002999999999E5
158 159 -3.3719964999999997E5
159 158 -3.3870064999999997E5
159 159 6.759002999999999E5
159 160 -3.3719964999999997E5
160 159 -3.3870064999999997E5
160 160 6.759002999999999E5
160 161 -3.3719964999999997E5
161 160 -3.3870064999999997E5
161 161 6.759002999999999E5
161 162 -3.3719964999999997E5
162 161 -3.3870064999999997E5
162 162 6.759002999999999E5
162 163 -3.3719964999999997E5
163 162 -3.3870064999999997E5
163 163 6.759002999999999E5
163 164 -3.3719964999999997E5
164 163 -3.3870064999999997E5
164 164 6.759002999999999E5
164 165 -3.3719964999999997E5
165 164 -3.3870064999999997E5
165 165 6.759002999999999E5
165 166 -3.3719964999999997E5
166 165 -3.3870064999999997E5
166 166 6.759002999999999E5
166 167 -3.3719964999999997E5
167 166 -3.3870064999999997E5
167 167 6.759002999999999E5
167 168 -3.3719964999999997E5
168 167 -3.3870064999999997E5
168 168 6.759002999999999E5
168 169 -3.3719964999999997E5
169 168 -3.3870064999999997E5
169 169 6.759002999999999E5
169 170 -3.3719964999999997E5
170 169 -3.3870064999999997E5
170 170 6.759002999999999E5
170 171 -3.3719964999999997E5
171 170 -3.3870064999999997E5
171 171 6.759002999999999E5
171 172 -3.3719964999999997E5
172 171 -3.3870064999999997E5
172 172 6.759002999999999E5
172 173 -3.3719964999999997E5
173 172 -3.3870064999999997E5
173 173 6.759002999999999E5
173 174 -3.3719964999999997E5
174 173 -3.3870064999999997E5
174 174 6.759002999999999E5
174 175 -3.3719964999999997E5
175 174 -3.3870064999999997E5
175 175 6.759002999999999E5
175 176 -3.3719964999999997E5
176 175 -3.3870064999999997E5
176 176 6.759002999999999E5
176 177 -3.3719964999999997E5
177 176 -3.3870064999999997E5
177 177 6.759002999999999E5
177 178 -3.3719964999999997E5
178 177 -3.3870064999999997E5
178 178 6.759002999999999E5
178 179 -3.3719964999999997E5
179 178 -3.3870064999999997E5
179 179 6.759002999999999E5
179 180 -3.3719964999999997E5
180 179 -3.3870064999999997E5
180 180 6.759002999999999E5
180 181 -3.3719964999999997E5
181 180 -3.3870064999999997E5
181 181 6.759002999999999E5
181 182 -3.3719964999999997E5
182 181 -3.3870064999999997E5
182 182 6.759002999999999E5
182 183 -3.3719964999999997E5
183 182 -3.3870064999999997E5
183 183 6.759002999999999E5
183 184 -3.3719964999999997E5
184 183 -3.3870064999999997E5
184 184 6.759002999999999E5
184 185 -3.3719964999999997E5
185 184 -3.3870064999999997E5
185 185 6.759002999999999E5
185 186 -3.3719964999999997E5
186 185 -3.3870064999999997E5
186 186 6.759002999999999E5
186 187 -3.3719964999999997E5
187 186 -3.3870064999999997E5
187 187 6.759002999999999E5
187 188 -3.3719964999999997E5
188 187 -3.3870064999999997E5
188 188 6.759002999999999E5
188 189 -3.3719964999999997E5
189 188 -3.3870064999999997E5
189 189 6.759002999999999E5
189 190 -3.3719964999999997E5
190 189 -3.3870064999999997E5
190 190 6.759002999999999E5
190 191 -3.3719964999999997E5
191 190 -3.3870064999999997E5
191 191 6.759002999999999E5
191 192 -3.3719964999999997E5
192 191 -3.3870064999999997E5
192 192 6.759002999999999E5
192 193 -3.3719964999999997E5
193 192 -3.3870064999999997E5
193 193 6.759002999999999E5
193 194 -3.3719964999999997E5
194 193 -3.3870064999999997E5
194 194 6.759002999999999E5
194 195 -3.3719964999999997E5
195 194 -3.3870064999999997E5
195 195 6.759002999999999E5
195 196 -3.3719964999999997E5
196 195 -3.3870064999999997E5
196 196 6.759002999999999E5
196 197 -3.3719964999999997E5
197 196 -3.3870064999999997E5
197 197 6.759002999999999E5
197 198 -3.3719964999999997E5
198 197 -3.3870064999999997E5
198 198 6.759002999999999E5
198 199 -3.3719964999999997E5
199 198 -3.3870064999999997E5
199 199 6.759002999999999E5
199 200 -3.3719964999999997E5
200 199 -3.3870064999999997E5
200 200 6.759002999999999E5
200 201 -3.3719964999999997E5
201 200 -3.3870064999999997E5
201 201 6.759002999999999E5
201 202 -3.3719964999999997E5
202 201 -3.3870064999999997E5
202 202 6.759002999999999E5
202 203 -3.3719964999999997E5
203 202 -3.3870064999999997E5
203 203 6.759002999999999E5
203 204 -3.3719964999999997E5
204 203 -3.3870064999999997E5
204 204 6.759002999999999E5
204 205 -3.3719964999999997E5
205 204 -3.3870064999999997E5
205 205 6.759002999999999E5
205 206 -3.3719964999999997E5
206 205 -3.3870064999999997E5
206 206 6.759002999999999E5
206 207 -3.3719964999999997E5
207 206 -3.3870064999999997E5
207 207 6.759002999999999E5
207 208 -3.3719964999999997E5
208 207 -3.3870064999999997E5
208 208 6.759002999999999E5
208 209 -3.3719964999999997E5
209 208 -3.3870064999999997E5
209 209 6.759002999999999E5
209 210 -3.3719964999999997E5
210 209 -3.3870064999999997E5
210 210 6.759002999999999E5
210 211 -3.3719964999999997E5
211 210 -3.3870064999999997E5
211 211 6.759002999999999E5
211 212 -3.3719964999999997E5
212 211 -3.3870064999999997E5
212 212 6.759002999999999E5
212 213 -3.3719964999999997E5
213 212 -3.3870064999999997E5
213 213 6.759002999999999E5
213 214 -3.3719964999999997E5
214 213 -3.3870064999999997E5
214 214 6.759002999999999E5
214 215 -3.3719964999999997E5
215 214 -3.3870064999999997E5
215 215 6.759002999999999E5
215 216 -3.3719964999999997E5
216 215 -3.3870064999999997E5
216 216 6.759002999999999E5
216 217 -3.3719964999999997E5
217 216 -3.3870064999999997E5
217 217 6.759002999999999E5
217 218 -3.3719964999999997E5
218 217 -3.3870064999999997E5
218 218 6.759002999999999E5
218 219 -3.3719964999999997E5
219 218 -3.3870064999999997E5
219 219 6.759002999999999E5
219 220 -3.3719964999999997E5
220 219 -3.3870064999999997E5
220 220 6.759002999999999E5
220 221 -3.3719964999999997E5
221 220 -3.3870064999999997E5
221 221 6.759002999999999E5
221 222 -3.3719964999999997E5
222 221 -3.3870064999999997E5
222 222 6.759002999999999E5
222 223 -3.3719964999999997E5
223 222 -3.3870064999999997E5
223 223 6.759002999999999E5
223 224 -3.3719964999999997E5
224 223 -3.3870064999999997E5
224 224 6.759002999999999E5
224 225 -3.3719964999999997E5
225 224 -3.3870064999999997E5
225 225 6.759002999999999E5
225 226 -3.3719964999999997E5
226 225 -3.3870064999999997E5
226 226 6.759002999999999E5
226 227 -3.3719964999999997E5
227 226 -3.3870064999999997E5
227 227 6.759002999999999E5
227 228 -3.3719964999999997E5
228 227 -3.3870064999999997E5
228 228 6.759002999999999E5
228 229 -3.3719964999999997E5
229 228 -3.3870064999999997E5
229 229 6.759002999999999E5
229 230 -3.3719964999999997E5
230 229 -3.3870064999999997E5
230 230 6.759002999999999E5
230 231 -3.3719964999999997E5
231 230 -3.3870064999999997E5
231 231 6.759002999999999E5
231 232 -3.3719964999999997E5
232 231 -3.3870064999999997E5
232 232 6.759002999999999E5
232 233 -3.3719964999999997E5
233 232 -3.3870064999999997E5
233 233 6.759002999999999E5
233 234 -3.3719964999999997E5
234 233 -3.3870064999999997E5
234 234 6.759002999999999E5
234 235 -3.3719964999999997E5
235 234 -3.3870064999999997E5
235 235 6.759002999999999E5
235 236 -3.3719964999999997E5
236 235 -3.3870064999999997E5
236 236 6.759002999999999E5
236 237 -3.3719964999999997E5
237 236 -3.3870064999999997E5
237 237 6.759002999999999E5
237 238 -3.3719964999999997E5
238 237 -3.3870064999999997E5
238 238 6.759002999999999E5
238 239 -3.3719964999999997E5
239 238 -3.3870064999999997E5
239 239 6.759002999999999E5
239 240 -3.3719964999999997E5
240 239 -3.3870064999999997E5
240 240 6.759002999999999E5
240 241 -3.3719964999999997E5
241 240 -3.3870064999999997E5
241 241 6.759002999999999E5
241 242 -3.3719964999999997E5
242 241 -3.3870064999999997E5
242 242 6.759002999999999E5
242 243 -3.3719964999999997E5
243 242 -3.3870064999999997E5
243 243 6.759002999999999E5
243 244 -3.3719964999999997E5
244 243 -3.3870064999999997E5
244 244 6.759002999999999E5
244 245 -3.3719964999999997E5
245 244 -3.3870064999999997E5
245 245 6.759002999999999E5
245 246 -3.3719964999999997E5
246 245 -3.3870064999999997E5
246 246 6.759002999999999E5
246 247 -3.3719964999999997E5
247 246 -3.3870064999999997E5
247 247 6.759002999999999E5
247 248 -3.3719964999999997E5
248 247 -3.3870064999999997E5
248 248 6.759002999999999E5
248 249 -3.3719964999999997E5
249 248 -3.3870064999999997E5
249 249 6.759002999999999E5
249 250 -3.3719964999999997E5
250 249 -3.3870064999999997E5
250 250 6.759002999999999E5
250 251 -3.3719964999999997E5
251 250 -3.3870064999999997E5
251 251 6.759002999999999E5
251 252 -3.3719964999999997E5
252 251 -3.3870064999999997E5
252 252 6.759002999999999E5
252 253 -3.3719964999999997E5
253 252 -3.3870064999999997E5
253 253 6.759002999999999E5
253 254 -3.3719964999999997E5
254 253 -3.3870064999999997E5
254 254 6.759002999999999E5
254 255 -3.3719964999999997E5
255 254 -3.3870064999999997E5
255 255 6.759002999999999E5
255 256 -3.3719964999999997E5
256 255 -3.3870064999999997E5
256 256 6.759002999999999E5
256 257 -3.3719964999999997E5
257 256 -3.3870064999999997E5
257 257 6.759002999999999E5
257 258 -3.3719964999999997E5
258 257 -3.3870064999999997E5
258 258 6.759002999999999E5
258 259 -3.3719964999999997E5
259 258 -3.3870064999999997E5
259 259 6.759002999999999E5
259 260 -3.3719964999999997E5
260 259 -3.3870064999999997E5
260 260 6.759002999999999E5
260 261 -3.3719964999999997E5
261 260 -3.3870064999999997E5
261 261 6.759002999999999E5
261 262 -3.3719964999999997E5
262 261 -3.3870064999999997E5
262 262 6.759002999999999E5
262 263 -3.3719964999999997E5
263 262 -3.3870064999999997E5
263 263 6.759002999999999E5
263 264 -3.3719964999999997E5
264 263 -3.3870064999999997E5
264 264 6.759002999999999E5
264 265 -3.3719964999999997E5
265 264 -3.3870064999999997E5
265 265 6.759002999999999E5
265 266 -3.3719964999999997E5
266 265 -3.3870064999999997E5
266 266 6.759002999999999E5
266 267 -3.3719964999999997E5
267 266 -3.3870064999999997E5
267 267 6.759002999999999E5
267 268 -3.3719964999999997E5
268 267 -3.3870064999999997E5
268 268 6.759002999999999E5
268 269 -3.3719964999999997E5
269 268 -3.3870064999999997E5
269 269 6.759002999999999E5
269 270 -3.3719964999999997E5
270 269 -3.3870064999999997E5
270 270 6.759002999999999E5
270 271 -3.3719964999999997E5
271 270 -3.3870064999999997E5
271 271 6.759002999999999E5
271 272 -3.3719964999999997E5
272 271 -3.3870064999999997E5
272 272 6.759002999999999E5
272 273 -3.3719964999999997E5
273 272 -3.3870064999999997E5
273 273 6.759002999999999E5
273 274 -3.3719964999999997E5
274 273 -3.3870064999999997E5
274 274 6.759002999999999E5
274 275 -3.3719964999999997E5
275 274 -3.3870064999999997E5
275 275 6.759002999999999E5
275 276 -3.3719964999999997E5
276 275 -3.3870064999999997E5
276 276 6.759002999999999E5
276 277 -3.3719964999999997E5
277 276 -3.3870064999999997E5
277 277 6.759002999999999E5
277 278 -3.3719964999999997E5
278 277 -3.3870064999999997E5
278 278 6.759002999999999E5
278 279 -3.3719964999999997E5
279 278 -3.3870064999999997E5
279 279 6.759002999999999E5
279 280 -3.3719964999999997E5
280 279 -3.3870064999999997E5
280 280 6.759002999999999E5
280 281 -3.3719964999999997E5
281 280 -3.3870064999999997E5
281 281 6.759002999999999E5
281 282 -3.3719964999999997E5
282 281 -3.3870064999999997E5
282 282 6.759002999999999E5
282 283 -3.3719964999999997E5
283 282 -3.3870064999999997E5
283 283 6.759002999999999E5
283 284 -3.3719964999999997E5
284 283 -3.3870064999999997E5
284 284 6.759002999999999E5
284 285 -3.3719964999999997E5
285 284 -3.3870064999999997E5
285 285 6.759002999999999E5
285 286 -3.3719964999999997E5
286 285 -3.3870064999999997E5
286 286 6.759002999999999E5
286 287 -3.3719964999999997E5
287 286 -3.3870064999999997E5
287 287 6.759002999999999E5
287 288 -3.3719964999999997E5
288 287 -3.3870064999999997E5
288 288 6.759002999999999E5
288 289 -3.3719964999999997E5
289 288 -3.3870064999999997E5
289 289 6.759002999999999E5
289 290 -3.3719964999999997E5
290 289 -3.3870064999999997E5
290 290 6.759002999999999E5
290 291 -3.3719964999999997E5
291 290 -3.3870064999999997E5
291 291 6.759002999999999E5
291 292 -3.3719964999999997E5
292 291 -3.3870064999999997E5
292 292 6.759002999999999E5
292 293 -3.3719964999999997E5
293 292 -3.3870064999999997E5
293 293 6.759002999999999E5
293 294 -3.3719964999999997E5
294 293 -3.3870064999999997E5
294 294 6.759002999999999E5
294 295 -3.3719964999999997E5
295 294 -3.3870064999999997E5
295 295 6.759002999999999E5
295 296 -3.3719964999999997E5
296 295 -3.3870064999999997E5
296 296 6.759002999999999E5
296 297 -3.3719964999999997E5
297 296 -3.3870064999999997E5
297 297 6.759002999999999E5
297 298 -3.3719964999999997E5
298 297 -3.3870064999999997E5
298 298 6.759002999999999E5
298 299 -3.3719964999999997E5
299 298 -3.3870064999999997E5
299 299 6.759002999999999E5
299 300 -3.3719964999999997E5
300 299 -3.3870064999999997E5
300 300 6.759002999999999E5
300 301 -3.3719964999999997E5
301 300 -3.3870064999999997E5
301 301 6.759002999999999E5
301 302 -3.3719964999999997E5
302 301 -3.3870064999999997E5
302 302 6.759002999999999E5
302 303 -3.3719964999999997E5
303 302 -3.3870064999999997E5
303 303 6.759002999999999E5
303 304 -3.3719964999999997E5
304 303 -3.3870064999999997E5
304 304 6.759002999999999E5
304 305 -3.3719964999999997E5
305 304 -3.3870064999999997E5
305 305 6.759002999999999E5
305 306 -3.3719964999999997E5
306 305 -3.3870064999999997E5
306 306 6.759002999999999E5
306 307 -3.3719964999999997E5
307 306 -3.3870064999999997E5
307 307 6.759002999999999E5
307 308 -3.3719964999999997E5
308 307 -3.3870064999999997E5
308 308 6.759002999999999E5
308 309 -3.3719964999999997E5
309 308 -3.3870064999999997E5
309 309 6.759002999999999E5
309 310 -3.3719964999999997E5
310 309 -3.3870064999999997E5
310 310 6.759002999999999E5
310 311 -3.3719964999999997E5
311 310 -3.3870064999999997E5
311 311 6.759002999999999E5
311 312 -3.3719964999999997E5
312 311 -3.3870064999999997E5
312 312 6.759002999999999E5
312 313 -3.3719964999999997E5
313 312 -3.3870064999999997E5
313 313 6.759002999999999E5
313 314 -3.3719964999999997E5
314 313 -3.3870064999999997E5
314 314 6.759002999999999E5
314 315 -3.3719964999999997E5
315 314 -3.3870064999999997E5
315 315 6.759002999999999E5
315 316 -3.3719964999999997E5
316 315 -3.3870064999999997E5
316 316 6.759002999999999E5
316 317 -3.3719964999999997E5
317 316 -3.3870064999999997E5
317 317 6.759002999999999E5
317 318 -3.3719964999999997E5
318 317 -3.3870064999999997E5
318 318 6.759002999999999E5
318 319 -3.3719964999999997E5
319 318 -3.3870064999999997E5
319 319 6.759002999999999E5
319 320 -3.3719964999999997E5
320 319 -3.3870064999999997E5
320 320 6.759002999999999E5
320 321 -3.3719964999999997E5
321 320 -3.3870064999999997E5
321 321 6.759002999999999E5
321 322 -3.3719964999999997E5
322 321 -3.3870064999999997E5
322 322 6.759002999999999E5
322 323 -3.3719964999999997E5
323 322 -3.3870064999999997E5
323 323 6.759002999999999E5
323 324 -3.3719964999999997E5
324 323 -3.3870064999999997E5
324 324 6.759002999999999E5
324 325 -3.3719964999999997E5
325 324 -3.3870064999999997E5
325 325 6.759002999999999E5
325 326 -3.3719964999999997E5
326 325 -3.3870064999999997E5
326 326 6.759002999999999E5
326 327 -3.3719964999999997E5
327 326 -3.3870064999999997E5
327 327 6.759002999999999E5
327 328 -3.3719964999999997E5
328 327 -3.3870064999999997E5
328 328 6.759002999999999E5
328 329 -3.3719964999999997E5
329 328 -3.3870064999999997E5
329 329 6.759002999999999E5
329 330 -3.3719964999999997E5
330 329 -3.3870064999999997E5
330 330 6.759002999999999E5
330 331 -3.3719964999999997E5
331 330 -3.3870064999999997E5
331 331 6.759002999999999E5
331 332 -3.3719964999999997E5
332 331 -3.3870064999999997E5
332 332 6.759002999999999E5
332 333 -3.3719964999999997E5
333 332 -3.3870064999999997E5
333 333 6.759002999999999E5
333 334 -3.3719964999999997E5
334 333 -3.3870064999999997E5
334 334 6.759002999999999E5
334 335 -3.3719964999999997E5
335 334 -3.3870064999999997E5
335 335 6.759002999999999E5
335 336 -3.3719964999999997E5
336 335 -3.3870064999999997E5
336 336 6.759002999999999E5
336 337 -3.3719964999999997E5
337 336 -3.3870064999999997E5
337 337 6.759002999999999E5
337 338 -3.3719964999999997E5
338 337 -3.3870064999999997E5
338 338 6.759002999999999E5
338 339 -3.3719964999999997E5
339 338 -3.3870064999999997E5
339 339 6.759002999999999E5
339 340 -3.3719964999999997E5
340 339 -3.3870064999999997E5
340 340 6.759002999999999E5
340 341 -3.3719964999999997E5
341 340 -3.3870064999999997E5
341 341 6.759002999999999E5
341 342 -3.3719964999999997E5
342 341 -3.3870064999999997E5
342 342 6.759002999999999E5
342 343 -3.3719964999999997E5
343 342 -3.3870064999999997E5
343 343 6.759002999999999E5
343 344 -3.3719964999999997E5
344 343 -3.3870064999999997E5
344 344 6.759002999999999E5
344 345 -3.3719964999999997E5
345 344 -3.3870064999999997E5
345 345 6.759002999999999E5
345 346 -3.3719964999999997E5
346 345 -3.3870064999999997E5
346 346 6.759002999999999E5
346 347 -3.3719964999999997E5
347 346 -3.3870064999999997E5
347 347 6.759002999999999E5
347 348 -3.3719964999999997E5
348 347 -3.3870064999999997E5
348 348 6.759002999999999E5
348 349 -3.3719964999999997E5
349 348 -3.3870064999999997E5
349 349 6.759002999999999E5
349 350 -3.3719964999999997E5
350 349 -3.3870064999999997E5
350 350 6.759002999999999E5
350 351 -3.3719964999999997E5
351 350 -3.3870064999999997E5
351 351 6.759002999999999E5
351 352 -3.3719964999999997E5
352 351 -3.3870064999999997E5
352 352 6.759002999999999E5
352 353 -3.3719964999999997E5
353 352 -3.3870064999999997E5
353 353 6.759002999999999E5
353 354 -3.3719964999999997E5
354 353 -3.3870064999999997E5
354 354 6.759002999999999E5
354 355 -3.3719964999999997E5
355 354 -3.3870064999999997E5
355 355 6.759002999999999E5
355 356 -3.3719964999999997E5
356 355 -3.3870064999999997E5
356 356 6.759002999999999E5
356 357 -3.3719964999999997E5
357 356 -3.3870064999999997E5
357 357 6.759002999999999E5
357 358 -3.3719964999999997E5
358 357 -3.3870064999999997E5
358 358 6.759002999999999E5
358 359 -3.3719964999999997E5
359 358 -3.3870064999999997E5
359 359 6.759002999999999E5
359 360 -3.3719964999999997E5
360 359 -3.3870064999999997E5
360 360 6.759002999999999E5
360 361 -3.3719964999999997E5
361 360 -3.3870064999999997E5
361 361 6.759002999999999E5
361 362 -3.3719964999999997E5
362 361 -3.3870064999999997E5
362 362 6.759002999999999E5
362 363 -3.3719964999999997E5
363 362 -3.3870064999999997E5
363 363 6.759002999999999E5
363 364 -3.3719964999999997E5
364 363 -3.3870064999999997E5
364 364 6.759002999999999E5
364 365 -3.3719964999999997E5
365 364 -3.3870064999999997E5
365 365 6.759002999999999E5
365 366 -3.3719964999999997E5
366 365 -3.3870064999999997E5
366 366 6.759002999999999E5
366 367 -3.3719964999999997E5
367 366 -3.3870064999999997E5
367 367 6.759002999999999E5
367 368 -3.3719964999999997E5
368 367 -3.3870064999999997E5
368 368 6.759002999999999E5
368 369 -3.3719964999999997E5
369 368 -3.3870064999999997E5
369 369 6.759002999999999E5
369 370 -3.3719964999999997E5
370 369 -3.3870064999999997E5
370 370 6.759002999999999E5
370 371 -3.3719964999999997E5
371 370 -3.3870064999999997E5
371 371 6.759002999999999E5
371 372 -3.3719964999999997E5
372 371 -3.3870064999999997E5
372 372 6.759002999999999E5
372 373 -3.3719964999999997E5
373 372 -3.3870064999999997E5
373 373 6.759002999999999E5
373 374 -3.3719964999999997E5
374 373 -3.3870064999999997E5
374 374 6.759002999999999E5
374 375 -3.3719964999999997E5
375 374 -3.3870064999999997E5
375 375 6.759002999999999E5
375 376 -3.3719964999999997E5
376 375 -3.3870064999999997E5
376 376 6.759002999999999E5
376 377 -3.3719964999999997E5
377 376 -3.3870064999999997E5
377 377 6.759002999999999E5
377 378 -3.3719964999999997E5
378 377 -3.3870064999999997E5
378 378 6.759002999999999E5
378 379 -3.3719964999999997E5
379 378 -3.3870064999999997E5
379 379 6.759002999999999E5
379 380 -3.3719964999999997E5
380 379 -3.3870064999999997E5
380 380 6.759002999999999E5
380 381 -3.3719964999999997E5
381 380 -3.3870064999999997E5
381 381 6.759002999999999E5
381 382 -3.3719964999999997E5
382 381 -3.3870064999999997E5
382 382 6.759002999999999E5
382 383 -3.3719964999999997E5
383 382 -3.3870064999999997E5
383 383 6.759002999999999E5
383 384 -3.3719964999999997E5
384 383 -3.3870064999999997E5
384 384 6.759002999999999E5
384 385 -3.3719964999999997E5
385 384 -3.3870064999999997E5
385 385 6.759002999999999E5
385 386 -3.3719964999999997E5
386 385 -3.3870064999999997E5
386 386 6.759002999999999E5
386 387 -3.3719964999999997E5
387 386 -3.3870064999999997E5
387 387 6.759002999999999E5
387 388 -3.3719964999999997E5
388 387 -3.3870064999999997E5
388 388 6.759002999999999E5
388 389 -3.3719964999999997E5
389 388 -3.3870064999999997E5
389 389 6.759002999999999E5
389 390 -3.3719964999999997E5
390 389 -3.3870064999999997E5
390 390 6.759002999999999E5
390 391 -3.3719964999999997E5
391 390 -3.3870064999999997E5
391 391 6.759002999999999E5
391 392 -3.3719964999999997E5
392 391 -3.3870064999999997E5
392 392 6.759002999999999E5
392 393 -3.3719964999999997E5
393 392 -3.3870064999999997E5
393 393 6.759002999999999E5
393 394 -3.3719964999999997E5
394 393 -3.3870064999999997E5
394 394 6.759002999999999E5
394 395 -3.3719964999999997E5
395 394 -3.3870064999999997E5
395 395 6.759002999999999E5
395 396 -3.3719964999999997E5
396 395 -3.3870064999999997E5
396 396 6.759002999999999E5
396 397 -3.3719964999999997E5
397 396 -3.3870064999999997E5
397 397 6.759002999999999E5
397 398 -3.3719964999999997E5
398 397 -3.3870064999999997E5
398 398 6.759002999999999E5
398 399 -3.3719964999999997E5
399 398 -3.3870064999999997E5
399 399 6.759002999999999E5
399 400 -3.3719964999999997E5
400 399 -3.3870064999999997E5
400 400 6.759002999999999E5
400 401 -3.3719964999999997E5
401 400 -3.3870064999999997E5
401 401 6.759002999999999E5
401 402 -3.3719964999999997E5
402 401 -3.3870064999999997E5
402 402 6.759002999999999E5
402 403 -3.3719964999999997E5
403 402 -3.3870064999999997E5
403 403 6.759002999999999E5
403 404 -3.3719964999999997E5
404 403 -3.3870064999999997E5
404 404 6.759002999999999E5
404 405 -3.3719964999999997E5
405 404 -3.3870064999999997E5
405 405 6.759002999999999E5
405 406 -3.3719964999999997E5
406 405 -3.3870064999999997E5
406 406 6.759002999999999E5
406 407 -3.3719964999999997E5
407 406 -3.3870064999999997E5
407 407 6.759002999999999E5
407 408 -3.3719964999999997E5
408 407 -3.3870064999999997E5
408 408 6.759002999999999E5
408 409 -3.3719964999999997E5
409 408 -3.3870064999999997E5
409 409 6.759002999999999E5
409 410 -3.3719964999999997E5
410 409 -3.3870064999999997E5
410 410 6.759002999999999E5
410 411 -3.3719964999999997E5
411 410 -3.3870064999999997E5
411 411 6.759002999999999E5
411 412 -3.3719964999999997E5
412 411 -3.3870064999999997E5
412 412 6.759002999999999E5
412 413 -3.3719964999999997E5
413 412 -3.3870064999999997E5
413 413 6.759002999999999E5
413 414 -3.3719964999999997E5
414 413 -3.3870064999999997E5
414 414 6.759002999999999E5
414 415 -3.3719964999999997E5
415 414 -3.3870064999999997E5
415 415 6.759002999999999E5
415 416 -3.3719964999999997E5
416 415 -3.3870064999999997E5
416 416 6.759002999999999E5
416 417 -3.3719964999999997E5
417 416 -3.3870064999999997E5
417 417 6.759002999999999E5
417 418 -3.3719964999999997E5
418 417 -3.3870064999999997E5
418 418 6.759002999999999E5
418 419 -3.3719964999999997E5
419 418 -3.3870064999999997E5
419 419 6.759002999999999E5
419 420 -3.3719964999999997E5
420 419 -3.3870064999999997E5
420 420 6.759002999999999E5
420 421 -3.3719964999999997E5
421 420 -3.3870064999999997E5
421 421 6.759002999999999E5
421 422 -3.3719964999999997E5
422 421 -3.3870064999999997E5
422 422 6.759002999999999E5
422 423 -3.3719964999999997E5
423 422 -3.3870064999999997E5
423 423 6.759002999999999E5
423 424 -3.3719964999999997E5
424 423 -3.3870064999999997E5
424 424 6.759002999999999E5
424 425 -3.3719964999999997E5
425 424 -3.3870064999999997E5
425 425 6.759002999999999E5
425 426 -3.3719964999999997E5
426 425 -3.3870064999999997E5
426 426 6.759002999999999E5
426 427 -3.3719964999999997E5
427 426 -3.3870064999999997E5
427 427 6.759002999999999E5
427 428 -3.3719964999999997E5
428 427 -3.3870064999999997E5
428 428 6.759002999999999E5
428 429 -3.3719964999999997E5
429 428 -3.3870064999999997E5
429 429 6.759002999999999E5
429 430 -3.3719964999999997E5
430 429 -3.3870064999999997E5
430 430 6.759002999999999E5
430 431 -3.3719964999999997E5
431 430 -3.3870064999999997E5
431 431 6.759002999999999E5
431 432 -3.3719964999999997E5
432 431 -3.3870064999999997E5
432 432 6.759002999999999E5
432 433 -3.3719964999999997E5
433 432 -3.3870064999999997E5
433 433 6.759002999999999E5
433 434 -3.3719964999999997E5
434 433 -3.3870064999999997E5
434 434 6.759002999999999E5
434 435 -3.3719964999999997E5
435 434 -3.3870064999999997E5
435 435 6.759002999999999E5
435 436 -3.3719964999999997E5
436 435 -3.3870064999999997E5
436 436 6.759002999999999E5
436 437 -3.3719964999999997E5
437 436 -3.3870064999999997E5
437 437 6.759002999999999E5
437 438 -3.3719964999999997E5
438 437 -3.3870064999999997E5
438 438 6.759002999999999E5
438 439 -3.3719964999999997E5
439 438 -3.3870064999999997E5
439 439 6.759002999999999E5
439 440 -3.3719964999999997E5
440 439 -3.3870064999999997E5
440 440 6.759002999999999E5
440 441 -3.3719964999999997E5
441 440 -3.3870064999999997E5
441 441 6.759002999999999E5
441 442 -3.3719964999999997E5
442 441 -3.3870064999999997E5
442 442 6.759002999999999E5
442 443 -3.3719964999999997E5
443 442 -3.3870064999999997E5
443 443 6.759002999999999E5
443 444 -3.3719964999999997E5
444 443 -3.3870064999999997E5
444 444 6.759002999999999E5
444 445 -3.3719964999999997E5
445 444 -3.3870064999999997E5
445 445 6.759002999999999E5
445 446 -3.3719964999999997E5
446 445 -3.3870064999999997E5
446 446 6.759002999999999E5
446 447 -3.3719964999999997E5
447 446 -3.3870064999999997E5
447 447 6.759002999999999E5
447 448 -3.3719964999999997E5
448 447 -3.3870064999999997E5
448 448 6.759002999999999E5
448 449 -3.3719964999999997E5
449 448 -3.3870064999999997E5
449 449 6.759002999999999E5
449 450 -3.3719964999999997E5
450 449 -3.3870064999999997E5
450 450 6.759002999999999E5
450 451 -3.3719964999999997E5
451 450 -3.3870064999999997E5
451 451 6.759002999999999E5
451 452 -3.3719964999999997E5
452 451 -3.3870064999999997E5
452 452 6.759002999999999E5
452 453 -3.3719964999999997E5
453 452 -3.3870064999999997E5
453 453 6.759002999999999E5
453 454 -3.3719964999999997E5
454 453 -3.3870064999999997E5
454 454 6.759002999999999E5
454 455 -3.3719964999999997E5
455 454 -3.3870064999999997E5
455 455 6.759002999999999E5
455 456 -3.3719964999999997E5
456 455 -3.3870064999999997E5
456 456 6.759002999999999E5
456 457 -3.3719964999999997E5
457 456 -3.3870064999999997E5
457 457 6.759002999999999E5
457 458 -3.3719964999999997E5
458 457 -3.3870064999999997E5
458 458 6.759002999999999E5
458 459 -3.3719964999999997E5
459 458 -3.3870064999999997E5
459 459 6.759002999999999E5
459 460 -3.3719964999999997E5
460 459 -3.3870064999999997E5
460 460 6.759002999999999E5
460 461 -3.3719964999999997E5
461 460 -3.3870064999999997E5
461 461 6.759002999999999E5
461 462 -3.3719964999999997E5
462 461 -3.3870064999999997E5
462 462 6.759002999999999E5
462 463 -3.3719964999999997E5
463 462 -3.3870064999999997E5
463 463 6.759002999999999E5
463 464 -3.3719964999999997E5
464 463 -3.3870064999999997E5
464 464 6.759002999999999E5
464 465 -3.3719964999999997E5
465 464 -3.3870064999999997E5
465 465 6.759002999999999E5
465 466 -3.3719964999999997E5
466 465 -3.3870064999999997E5
466 466 6.759002999999999E5
466 467 -3.3719964999999997E5
467 466 -3.3870064999999997E5
467 467 6.759002999999999E5
467 468 -3.3719964999999997E5
468 467 -3.3870064999999997E5
468 468 6.759002999999999E5
468 469 -3.3719964999999997E5
469 468 -3.3870064999999997E5
469 469 6.759002999999999E5
469 470 -3.3719964999999997E5
470 469 -3.3870064999999997E5
470 470 6.759002999999999E5
470 471 -3.3719964999999997E5
471 470 -3.3870064999999997E5
471 471 6.759002999999999E5
471 472 -3.3719964999999997E5
472 471 -3.3870064999999997E5
472 472 6.759002999999999E5
472 473 -3.3719964999999997E5
473 472 -3.3870064999999997E5
473 473 6.759002999999999E5
473 474 -3.3719964999999997E5
474 473 -3.3870064999999997E5
474 474 6.759002999999999E5
474 475 -3.3719964999999997E5
475 474 -3.3870064999999997E5
475 475 6.759002999999999E5
475 476 -3.3719964999999997E5
476 475 -3.3870064999999997E5
476 476 6.759002999999999E5
476 477 -3.3719964999999997E5
477 476 -3.3870064999999997E5
477 477 6.759002999999999E5
477 478 -3.3719964999999997E5
478 477 -3.3870064999999997E5
478 478 6.759002999999999E5
478 479 -3.3719964999999997E5
479 478 -3.3870064999999997E5
479 479 6.759002999999999E5
479 480 -3.3719964999999997E5
480 479 -3.3870064999999997E5
480 480 6.759002999999999E5
480 481 -3.3719964999999997E5
481 480 -3.3870064999999997E5
481 481 6.759002999999999E5
481 482 -3.3719964999999997E5
482 481 -3.3870064999999997E5
482 482 6.759002999999999E5
482 483 -3.3719964999999997E5
483 482 -3.3870064999999997E5
483 483 6.759002999999999E5
483 484 -3.3719964999999997E5
484 483 -3.3870064999999997E5
484 484 6.759002999999999E5
484 485 -3.3719964999999997E5
485 484 -3.3870064999999997E5
485 485 6.759002999999999E5
485 486 -3.3719964999999997E5
486 485 -3.3870064999999997E5
486 486 6.759002999999999E5
486 487 -3.3719964999999997E5
487 486 -3.3870064999999997E5
487 487 6.759002999999999E5
487 488 -3.3719964999999997E5
488 487 -3.3870064999999997E5
488 488 6.759002999999999E5
488 489 -3.3719964999999997E5
489 488 -3.3870064999999997E5
489 489 6.759002999999999E5
489 490 -3.3719964999999997E5
490 489 -3.3870064999999997E5
490 490 6.759002999999999E5
490 491 -3.3719964999999997E5
491 490 -3.3870064999999997E5
491 491 6.759002999999999E5
491 492 -3.3719964999999997E5
492 491 -3.3870064999999997E5
492 492 6.759002999999999E5
492 493 -3.3719964999999997E5
493 492 -3.3870064999999997E5
493 493 6.759002999999999E5
493 494 -3.3719964999999997E5
494 493 -3.3870064999999997E5
494 494 6.759002999999999E5
494 495 -3.3719964999999997E5
495 494 -3.3870064999999997E5
495 495 6.759002999999999E5
495 496 -3.3719964999999997E5
496 495 -3.3870064999999997E5
496 496 6.759002999999999E5
496 497 -3.3719964999999997E5
497 496 -3.3870064999999997E5
497 497 6.759002999999999E5
497 498 -3.3719964999999997E5
498 497 -3.3870064999999997E5
498 498 6.759002999999999E5
498 499 -3.3719964999999997E5
499 498 -3.3870064999999997E5
499 499 6.759002999999999E5
499 500 -3.3719964999999997E5
500 499 -3.3870064999999997E5
500 500 6.759002999999999E5
500 501 -3.3719964999999997E5
501 500 -3.3870064999999997E5
501 501 6.759002999999999E5
501 502 -3.3719964999999997E5
502 501 -3.3870064999999997E5
502 502 6.759002999999999E5
502 503 -3.3719964999999997E5
503 502 -3.3870064999999997E5
503 503 6.759002999999999E5
503 504 -3.3719964999999997E5
504 503 -3.3870064999999997E5
504 504 6.759002999999999E5
504 505 -3.3719964999999997E5
505 504 -3.3870064999999997E5
505 505 6.759002999999999E5
505 506 -3.3719964999999997E5
506 505 -3.3870064999999997E5
506 506 6.759002999999999E5
506 507 -3.3719964999999997E5
507 506 -3.3870064999999997E5
507 507 6.759002999999999E5
507 508 -3.3719964999999997E5
508 507 -3.3870064999999997E5
508 508 6.759002999999999E5
508 509 -3.3719964999999997E5
509 508 -3.3870064999999997E5
509 509 6.759002999999999E5
509 510 -3.3719964999999997E5
510 509 -3.3870064999999997E5
510 510 6.759002999999999E5
510 511 -3.3719964999999997E5
511 510 -3.3870064999999997E5
511 511 6.759002999999999E5
511 512 -3.3719964999999997E5
512 511 -3.3870064999999997E5
512 512 6.759002999999999E5
512 513 -3.3719964999999997E5
513 512 -3.3870064999999997E5
513 513 6.759002999999999E5
513 514 -3.3719964999999997E5
514 513 -3.3870064999999997E5
514 514 6.759002999999999E5
514 515 -3.3719964999999997E5
515 514 -3.3870064999999997E5
515 515 6.759002999999999E5
515 516 -3.3719964999999997E5
516 515 -3.3870064999999997E5
516 516 6.759002999999999E5
516 517 -3.3719964999999997E5
517 516 -3.3870064999999997E5
517 517 6.759002999999999E5
517 518 -3.3719964999999997E5
518 517 -3.3870064999999997E5
518 518 6.759002999999999E5
518 519 -3.3719964999999997E5
519 518 -3.3870064999999997E5
519 519 6.759002999999999E5
519 520 -3.3719964999999997E5
520 519 -3.3870064999999997E5
520 520 6.759002999999999E5
520 521 -3.3719964999999997E5
521 520 -3.3870064999999997E5
521 521 6.759002999999999E5
521 522 -3.3719964999999997E5
522 521 -3.3870064999999997E5
522 522 6.759002999999999E5
522 523 -3.3719964999999997E5
523 522 -3.3870064999999997E5
523 523 6.759002999999999E5
523 524 -3.3719964999999997E5
524 523 -3.3870064999999997E5
524 524 6.759002999999999E5
524 525 -3.3719964999999997E5
525 524 -3.3870064999999997E5
525 525 6.759002999999999E5
525 526 -3.3719964999999997E5
526 525 -3.3870064999999997E5
526 526 6.759002999999999E5
526 527 -3.3719964999999997E5
527 526 -3.3870064999999997E5
527 527 6.759002999999999E5
527 528 -3.3719964999999997E5
528 527 -3.3870064999999997E5
528 528 6.759002999999999E5
528 529 -3.3719964999999997E5
529 528 -3.3870064999999997E5
529 529 6.759002999999999E5
529 530 -3.3719964999999997E5
530 529 -3.3870064999999997E5
530 530 6.759002999999999E5
530 531 -3.3719964999999997E5
531 530 -3.3870064999999997E5
531 531 6.759002999999999E5
531 532 -3.3719964999999997E5
532 531 -3.3870064999999997E5
532 532 6.759002999999999E5
532 533 -3.3719964999999997E5
533 532 -3.3870064999999997E5
533 533 6.759002999999999E5
533 534 -3.3719964999999997E5
534 533 -3.3870064999999997E5
534 534 6.759002999999999E5
534 535 -3.3719964999999997E5
535 534 -3.3870064999999997E5
535 535 6.759002999999999E5
535 536 -3.3719964999999997E5
536 535 -3.3870064999999997E5
536 536 6.759002999999999E5
536 537 -3.3719964999999997E5
537 536 -3.3870064999999997E5
537 537 6.759002999999999E5
537 538 -3.3719964999999997E5
538 537 -3.3870064999999997E5
538 538 6.759002999999999E5
538 539 -3.3719964999999997E5
539 538 -3.3870064999999997E5
539 539 6.759002999999999E5
539 540 -3.3719964999999997E5
540 539 -3.3870064999999997E5
540 540 6.759002999999999E5
540 541 -3.3719964999999997E5
541 540 -3.3870064999999997E5
541 541 6.759002999999999E5
541 542 -3.3719964999999997E5
542 541 -3.3870064999999997E5
542 542 6.759002999999999E5
542 543 -3.3719964999999997E5
543 542 -3.3870064999999997E5
543 543 6.759002999999999E5
543 544 -3.3719964999999997E5
544 543 -3.3870064999999997E5
544 544 6.759002999999999E5
544 545 -3.3719964999999997E5
545 544 -3.3870064999999997E5
545 545 6.759002999999999E5
545 546 -3.3719964999999997E5
546 545 -3.3870064999999997E5
546 546 6.759002999999999E5
546 547 -3.3719964999999997E5
547 546 -3.3870064999999997E5
547 547 6.759002999999999E5
547 548 -3.3719964999999997E5
548 547 -3.3870064999999997E5
548 548 6.759002999999999E5
548 549 -3.3719964999999997E5
549 548 -3.3870064999999997E5
549 549 6.759002999999999E5
549 550 -3.3719964999999997E5
550 549 -3.3870064999999997E5
550 550 6.759002999999999E5
550 551 -3.3719964999999997E5
551 550 -3.3870064999999997E5
551 551 6.759002999999999E5
551 552 -3.3719964999999997E5
552 551 -3.3870064999999997E5
552 552 6.759002999999999E5
552 553 -3.3719964999999997E5
553 552 -3.3870064999999997E5
553 553 6.759002999999999E5
553 554 -3.3719964999999997E5
554 553 -3.3870064999999997E5
554 554 6.759002999999999E5
554 555 -3.3719964999999997E5
555 554 -3.3870064999999997E5
555 555 6.759002999999999E5
555 556 -3.3719964999999997E5
556 555 -3.3870064999999997E5
556 556 6.759002999999999E5
556 557 -3.3719964999999997E5
557 556 -3.3870064999999997E5
557 557 6.759002999999999E5
557 558 -3.3719964999999997E5
558 557 -3.3870064999999997E5
558 558 6.759002999999999E5
558 559 -3.3719964999999997E5
559 558 -3.3870064999999997E5
559 559 6.759002999999999E5
559 560 -3.3719964999999997E5
560 559 -3.3870064999999997E5
560 560 6.759002999999999E5
560 561 -3.3719964999999997E5
561 560 -3.3870064999999997E5
561 561 6.759002999999999E5
561 562 -3.3719964999999997E5
562 561 -3.3870064999999997E5
562 562 6.759002999999999E5
562 563 -3.3719964999999997E5
563 562 -3.3870064999999997E5
563 563 6.759002999999999E5
563 564 -3.3719964999999997E5
564 563 -3.3870064999999997E5
564 564 6.759002999999999E5
564 565 -3.3719964999999997E5
565 564 -3.3870064999999997E5
565 565 6.759002999999999E5
565 566 -3.3719964999999997E5
566 565 -3.3870064999999997E5
566 566 6.759002999999999E5
566 567 -3.3719964999999997E5
567 566 -3.3870064999999997E5
567 567 6.759002999999999E5
567 568 -3.3719964999999997E5
568 567 -3.3870064999999997E5
568 568 6.759002999999999E5
568 569 -3.3719964999999997E5
569 568 -3.3870064999999997E5
569 569 6.759002999999999E5
569 570 -3.3719964999999997E5
570 569 -3.3870064999999997E5
570 570 6.759002999999999E5
570 571 -3.3719964999999997E5
571 570 -3.3870064999999997E5
571 571 6.759002999999999E5
571 572 -3.3719964999999997E5
572 571 -3.3870064999999997E5
572 572 6.759002999999999E5
572 573 -3.3719964999999997E5
573 572 -3.3870064999999997E5
573 573 6.759002999999999E5
573 574 -3.3719964999999997E5
574 573 -3.3870064999999997E5
574 574 6.759002999999999E5
574 575 -3.3719964999999997E5
575 574 -3.3870064999999997E5
575 575 6.759002999999999E5
575 576 -3.3719964999999997E5
576 575 -3.3870064999999997E5
576 576 6.759002999999999E5
576 577 -3.3719964999999997E5
577 576 -3.3870064999999997E5
577 577 6.759002999999999E5
577 578 -3.3719964999999997E5
578 577 -3.3870064999999997E5
578 578 6.759002999999999E5
578 579 -3.3719964999999997E5
579 578 -3.3870064999999997E5
579 579 6.759002999999999E5
579 580 -3.3719964999999997E5
580 579 -3.3870064999999997E5
580 580 6.759002999999999E5
580 581 -3.3719964999999997E5
581 580 -3.3870064999999997E5
581 581 6.759002999999999E5
581 582 -3.3719964999999997E5
582 581 -3.3870064999999997E5
582 582 6.759002999999999E5
582 583 -3.3719964999999997E5
583 582 -3.3870064999999997E5
583 583 6.759002999999999E5
583 584 -3.3719964999999997E5
584 583 -3.3870064999999997E5
584 584 6.759002999999999E5
584 585 -3.3719964999999997E5
585 584 -3.3870064999999997E5
585 585 6.759002999999999E5
585 586 -3.3719964999999997E5
586 585 -3.3870064999999997E5
586 586 6.759002999999999E5
586 587 -3.3719964999999997E5
587 586 -3.3870064999999997E5
587 587 6.759002999999999E5
587 588 -3.3719964999999997E5
588 587 -3.3870064999999997E5
588 588 6.759002999999999E5
588 589 -3.3719964999999997E5
589 588 -3.3870064999999997E5
589 589 6.759002999999999E5
589 590 -3.3719964999999997E5
590 589 -3.3870064999999997E5
590 590 6.759002999999999E5
590 591 -3.3719964999999997E5
591 590 -3.3870064999999997E5
591 591 6.759002999999999E5
591 592 -3.3719964999999997E5
592 591 -3.3870064999999997E5
592 592 6.759002999999999E5
592 593 -3.3719964999999997E5
593 592 -3.3870064999999997E5
593 593 6.759002999999999E5
593 594 -3.3719964999999997E5
594 593 -3.3870064999999997E5
594 594 6.759002999999999E5
594 595 -3.3719964999999997E5
595 594 -3.3870064999999997E5
595 595 6.759002999999999E5
595 596 -3.3719964999999997E5
596 595 -3.3870064999999997E5
596 596 6.759002999999999E5
596 597 -3.3719964999999997E5
597 596 -3.3870064999999997E5
597 597 6.759002999999999E5
597 598 -3.3719964999999997E5
598 597 -3.3870064999999997E5
598 598 6.759002999999999E5
598 599 -3.3719964999999997E5
599 598 -3.3870064999999997E5
599 599 6.759002999999999E5
599 600 -3.3719964999999997E5
600 599 -3.3870064999999997E5
600 600 6.759002999999999E5
600 601 -3.3719964999999997E5
601 600 -3.3870064999999997E5
601 601 6.759002999999999E5
601 602 -3.3719964999999997E5
602 601 -3.3870064999999997E5
602 602 6.759002999999999E5
602 603 -3.3719964999999997E5
603 602 -3.3870064999999997E5
603 603 6.759002999999999E5
603 604 -3.3719964999999997E5
604 603 -3.3870064999999997E5
604 604 6.759002999999999E5
604 605 -3.3719964999999997E5
605 604 -3.3870064999999997E5
605 605 6.759002999999999E5
605 606 -3.3719964999999997E5
606 605 -3.3870064999999997E5
606 606 6.759002999999999E5
606 607 -3.3719964999999997E5
607 606 -3.3870064999999997E5
607 607 6.759002999999999E5
607 608 -3.3719964999999997E5
608 607 -3.3870064999999997E5
608 608 6.759002999999999E5
608 609 -3.3719964999999997E5
609 608 -3.3870064999999997E5
609 609 6.759002999999999E5
609 610 -3.3719964999999997E5
610 609 -3.3870064999999997E5
610 610 6.759002999999999E5
610 611 -3.3719964999999997E5
611 610 -3.3870064999999997E5
611 611 6.759002999999999E5
611 612 -3.3719964999999997E5
612 611 -3.3870064999999997E5
612 612 6.759002999999999E5
612 613 -3.3719964999999997E5
613 612 -3.3870064999999997E5
613 613 6.759002999999999E5
613 614 -3.3719964999999997E5
614 613 -3.3870064999999997E5
614 614 6.759002999999999E5
614 615 -3.3719964999999997E5
615 614 -3.3870064999999997E5
615 615 6.759002999999999E5
615 616 -3.3719964999999997E5
616 615 -3.3870064999999997E5
616 616 6.759002999999999E5
616 617 -3.3719964999999997E5
617 616 -3.3870064999999997E5
617 617 6.759002999999999E5
617 618 -3.3719964999999997E5
618 617 -3.3870064999999997E5
618 618 6.759002999999999E5
618 619 -3.3719964999999997E5
619 618 -3.3870064999999997E5
619 619 6.759002999999999E5
619 620 -3.3719964999999997E5
620 619 -3.3870064999999997E5
620 620 6.759002999999999E5
620 621 -3.3719964999999997E5
621 620 -3.3870064999999997E5
621 621 6.759002999999999E5
621 622 -3.3719964999999997E5
622 621 -3.3870064999999997E5
622 622 6.759002999999999E5
622 623 -3.3719964999999997E5
623 622 -3.3870064999999997E5
623 623 6.759002999999999E5
623 624 -3.3719964999999997E5
624 623 -3.3870064999999997E5
624 624 6.759002999999999E5
624 625 -3.3719964999999997E5
625 624 -3.3870064999999997E5
625 625 6.759002999999999E5
625 626 -3.3719964999999997E5
626 625 -3.3870064999999997E5
626 626 6.759002999999999E5
626 627 -3.3719964999999997E5
627 626 -3.3870064999999997E5
627 627 6.759002999999999E5
627 628 -3.3719964999999997E5
628 627 -3.3870064999999997E5
628 628 6.759002999999999E5
628 629 -3.3719964999999997E5
629 628 -3.3870064999999997E5
629 629 6.759002999999999E5
629 630 -3.3719964999999997E5
630 629 -3.3870064999999997E5
630 630 6.759002999999999E5
630 631 -3.3719964999999997E5
631 630 -3.3870064999999997E5
631 631 6.759002999999999E5
631 632 -3.3719964999999997E5
632 631 -3.3870064999999997E5
632 632 6.759002999999999E5
632 633 -3.3719964999999997E5
633 632 -3.3870064999999997E5
633 633 6.759002999999999E5
633 634 -3.3719964999999997E5
634 633 -3.3870064999999997E5
634 634 6.759002999999999E5
634 635 -3.3719964999999997E5
635 634 -3.3870064999999997E5
635 635 6.759002999999999E5
635 636 -3.3719964999999997E5
636 635 -3.3870064999999997E5
636 636 6.759002999999999E5
636 637 -3.3719964999999997E5
637 636 -3.3870064999999997E5
637 637 6.759002999999999E5
637 638 -3.3719964999999997E5
638 637 -3.3870064999999997E5
638 638 6.759002999999999E5
638 639 -3.3719964999999997E5
639 638 -3.3870064999999997E5
639 639 6.759002999999999E5
639 640 -3.3719964999999997E5
640 639 -3.3870064999999997E5
640 640 6.759002999999999E5
640 641 -3.3719964999999997E5
641 640 -3.3870064999999997E5
641 641 6.759002999999999E5
641 642 -3.3719964999999997E5
642 641 -3.3870064999999997E5
642 642 6.759002999999999E5
642 643 -3.3719964999999997E5
643 642 -3.3870064999999997E5
643 643 6.759002999999999E5
643 644 -3.3719964999999997E5
644 643 -3.3870064999999997E5
644 644 6.759002999999999E5
644 645 -3.3719964999999997E5
645 644 -3.3870064999999997E5
645 645 6.759002999999999E5
645 646 -3.3719964999999997E5
646 645 -3.3870064999999997E5
646 646 6.759002999999999E5
646 647 -3.3719964999999997E5
647 646 -3.3870064999999997E5
647 647 6.759002999999999E5
647 648 -3.3719964999999997E5
648 647 -3.3870064999999997E5
648 648 6.759002999999999E5
648 649 -3.3719964999999997E5
649 648 -3.3870064999999997E5
649 649 6.759002999999999E5
649 650 -3.3719964999999997E5
650 649 -3.3870064999999997E5
650 650 6.759002999999999E5
650 651 -3.3719964999999997E5
651 650 -3.3870064999999997E5
651 651 6.759002999999999E5
651 652 -3.3719964999999997E5
652 651 -3.3870064999999997E5
652 652 6.759002999999999E5
652 653 -3.3719964999999997E5
653 652 -3.3870064999999997E5
653 653 6.759002999999999E5
653 654 -3.3719964999999997E5
654 653 -3.3870064999999997E5
654 654 6.759002999999999E5
654 655 -3.3719964999999997E5
655 654 -3.3870064999999997E5
655 655 6.759002999999999E5
655 656 -3.3719964999999997E5
656 655 -3.3870064999999997E5
656 656 6.759002999999999E5
656 657 -3.3719964999999997E5
657 656 -3.3870064999999997E5
657 657 6.759002999999999E5
657 658 -3.3719964999999997E5
658 657 -3.3870064999999997E5
658 658 6.759002999999999E5
658 659 -3.3719964999999997E5
659 658 -3.3870064999999997E5
659 659 6.759002999999999E5
659 660 -3.3719964999999997E5
660 659 -3.3870064999999997E5
660 660 6.759002999999999E5
660 661 -3.3719964999999997E5
661 660 -3.3870064999999997E5
661 661 6.759002999999999E5
661 662 -3.3719964999999997E5
662 661 -3.3870064999999997E5
662 662 6.759002999999999E5
662 663 -3.3719964999999997E5
663 662 -3.3870064999999997E5
663 663 6.759002999999999E5
663 664 -3.3719964999999997E5
664 663 -3.3870064999999997E5
664 664 6.759002999999999E5
664 665 -3.3719964999999997E5
665 664 -3.3870064999999997E5
665 665 6.759002999999999E5
665 666 -3.3719964999999997E5
666 665 -3.3870064999999997E5
666 666 6.759002999999999E5
666 667 -3.3719964999999997E5
667 666 -3.3870064999999997E5
667 667 6.759002999999999E5
667 668 -3.3719964999999997E5
668 667 -3.3870064999999997E5
668 668 6.759002999999999E5
668 669 -3.3719964999999997E5
669 668 -3.3870064999999997E5
669 669 6.759002999999999E5
669 670 -3.3719964999999997E5
670 669 -3.3870064999999997E5
670 670 6.759002999999999E5
670 671 -3.3719964999999997E5
671 670 -3.3870064999999997E5
671 671 6.759002999999999E5
671 672 -3.3719964999999997E5
672 671 -3.3870064999999997E5
672 672 6.759002999999999E5
672 673 -3.3719964999999997E5
673 672 -3.3870064999999997E5
673 673 6.759002999999999E5
673 674 -3.3719964999999997E5
674 673 -3.3870064999999997E5
674 674 6.759002999999999E5
674 675 -3.3719964999999997E5
675 674 -3.3870064999999997E5
675 675 6.759002999999999E5
675 676 -3.3719964999999997E5
676 675 -3.3870064999999997E5
676 676 6.759002999999999E5
676 677 -3.3719964999999997E5
677 676 -3.3870064999999997E5
677 677 6.759002999999999E5
677 678 -3.3719964999999997E5
678 677 -3.3870064999999997E5
678 678 6.759002999999999E5
678 679 -3.3719964999999997E5
679 678 -3.3870064999999997E5
679 679 6.759002999999999E5
679 680 -3.3719964999999997E5
680 679 -3.3870064999999997E5
680 680 6.759002999999999E5
680 681 -3.3719964999999997E5
681 680 -3.3870064999999997E5
681 681 6.759002999999999E5
681 682 -3.3719964999999997E5
682 681 -3.3870064999999997E5
682 682 6.759002999999999E5
682 683 -3.3719964999999997E5
683 682 -3.3870064999999997E5
683 683 6.759002999999999E5
683 684 -3.3719964999999997E5
684 683 -3.3870064999999997E5
684 684 6.759002999999999E5
684 685 -3.3719964999999997E5
685 684 -3.3870064999999997E5
685 685 6.759002999999999E5
685 686 -3.3719964999999997E5
686 685 -3.3870064999999997E5
686 686 6.759002999999999E5
686 687 -3.3719964999999997E5
687 686 -3.3870064999999997E5
687 687 6.759002999999999E5
687 688 -3.3719964999999997E5
688 687 -3.3870064999999997E5
688 688 6.759002999999999E5
688 689 -3.3719964999999997E5
689 688 -3.3870064999999997E5
689 689 6.759002999999999E5
689 690 -3.3719964999999997E5
690 689 -3.3870064999999997E5
690 690 6.759002999999999E5
690 691 -3.3719964999999997E5
691 690 -3.3870064999999997E5
691 691 6.759002999999999E5
691 692 -3.3719964999999997E5
692 691 -3.3870064999999997E5
692 692 6.759002999999999E5
692 693 -3.3719964999999997E5
693 692 -3.3870064999999997E5
693 693 6.759002999999999E5
693 694 -3.3719964999999997E5
694 693 -3.3870064999999997E5
694 694 6.759002999999999E5
694 695 -3.3719964999999997E5
695 694 -3.3870064999999997E5
695 695 6.759002999999999E5
695 696 -3.3719964999999997E5
696 695 -3.3870064999999997E5
696 696 6.759002999999999E5
696 697 -3.3719964999999997E5
697 696 -3.3870064999999997E5
697 697 6.759002999999999E5
697 698 -3.3719964999999997E5
698 697 -3.3870064999999997E5
698 698 6.759002999999999E5
698 699 -3.3719964999999997E5
699 698 -3.3870064999999997E5
699 699 6.759002999999999E5
699 700 -3.3719964999999997E5
700 699 -3.3870064999999997E5
700 700 6.759002999999999E5
700 701 -3.3719964999999997E5
701 700 -3.3870064999999997E5
701 701 6.759002999999999E5
701 702 -3.3719964999999997E5
702 701 -3.3870064999999997E5
702 702 6.759002999999999E5
702 703 -3.3719964999999997E5
703 702 -3.3870064999999997E5
703 703 6.759002999999999E5
703 704 -3.3719964999999997E5
704 703 -3.3870064999999997E5
704 704 6.759002999999999E5
704 705 -3.3719964999999997E5
705 704 -3.3870064999999997E5
705 705 6.759002999999999E5
705 706 -3.3719964999999997E5
706 705 -3.3870064999999997E5
706 706 6.759002999999999E5
706 707 -3.3719964999999997E5
707 706 -3.3870064999999997E5
707 707 6.759002999999999E5
707 708 -3.3719964999999997E5
708 707 -3.3870064999999997E5
708 708 6.759002999999999E5
708 709 -3.3719964999999997E5
709 708 -3.3870064999999997E5
709 709 6.759002999999999E5
709 710 -3.3719964999999997E5
710 709 -3.3870064999999997E5
710 710 6.759002999999999E5
710 711 -3.3719964999999997E5
711 710 -3.3870064999999997E5
711 711 6.759002999999999E5
711 712 -3.3719964999999997E5
712 711 -3.3870064999999997E5
712 712 6.759002999999999E5
712 713 -3.3719964999999997E5
713 712 -3.3870064999999997E5
713 713 6.759002999999999E5
713 714 -3.3719964999999997E5
714 713 -3.3870064999999997E5
714 714 6.759002999999999E5
714 715 -3.3719964999999997E5
715 714 -3.3870064999999997E5
715 715 6.759002999999999E5
715 716 -3.3719964999999997E5
716 715 -3.3870064999999997E5
716 716 6.759002999999999E5
716 717 -3.3719964999999997E5
717 716 -3.3870064999999997E5
717 717 6.759002999999999E5
717 718 -3.3719964999999997E5
718 717 -3.3870064999999997E5
718 718 6.759002999999999E5
718 719 -3.3719964999999997E5
719 718 -3.3870064999999997E5
719 719 6.759002999999999E5
719 720 -3.3719964999999997E5
720 719 -3.3870064999999997E5
720 720 6.759002999999999E5
720 721 -3.3719964999999997E5
721 720 -3.3870064999999997E5
721 721 6.759002999999999E5
721 722 -3.3719964999999997E5
722 721 -3.3870064999999997E5
722 722 6.759002999999999E5
722 723 -3.3719964999999997E5
723 722 -3.3870064999999997E5
723 723 6.759002999999999E5
723 724 -3.3719964999999997E5
724 723 -3.3870064999999997E5
724 724 6.759002999999999E5
724 725 -3.3719964999999997E5
725 724 -3.3870064999999997E5
725 725 6.759002999999999E5
725 726 -3.3719964999999997E5
726 725 -3.3870064999999997E5
726 726 6.759002999999999E5
726 727 -3.3719964999999997E5
727 726 -3.3870064999999997E5
727 727 6.759002999999999E5
727 728 -3.3719964999999997E5
728 727 -3.3870064999999997E5
728 728 6.759002999999999E5
728 729 -3.3719964999999997E5
729 728 -3.3870064999999997E5
729 729 6.759002999999999E5
729 730 -3.3719964999999997E5
730 729 -3.3870064999999997E5
730 730 6.759002999999999E5
730 731 -3.3719964999999997E5
731 730 -3.3870064999999997E5
731 731 6.759002999999999E5
731 732 -3.3719964999999997E5
732 731 -3.3870064999999997E5
732 732 6.759002999999999E5
732 733 -3.3719964999999997E5
733 732 -3.3870064999999997E5
733 733 6.759002999999999E5
733 734 -3.3719964999999997E5
734 733 -3.3870064999999997E5
734 734 6.759002999999999E5
734 735 -3.3719964999999997E5
735 734 -3.3870064999999997E5
735 735 6.759002999999999E5
735 736 -3.3719964999999997E5
736 735 -3.3870064999999997E5
736 736 6.759002999999999E5
736 737 -3.3719964999999997E5
737 736 -3.3870064999999997E5
737 737 6.759002999999999E5
737 738 -3.3719964999999997E5
738 737 -3.3870064999999997E5
738 738 6.759002999999999E5
738 739 -3.3719964999999997E5
739 738 -3.3870064999999997E5
739 739 6.759002999999999E5
739 740 -3.3719964999999997E5
740 739 -3.3870064999999997E5
740 740 6.759002999999999E5
740 741 -3.3719964999999997E5
741 740 -3.3870064999999997E5
741 741 6.759002999999999E5
741 742 -3.3719964999999997E5
742 741 -3.3870064999999997E5
742 742 6.759002999999999E5
742 743 -3.3719964999999997E5
743 742 -3.3870064999999997E5
743 743 6.759002999999999E5
743 744 -3.3719964999999997E5
744 743 -3.3870064999999997E5
744 744 6.759002999999999E5
744 745 -3.3719964999999997E5
745 744 -3.3870064999999997E5
745 745 6.759002999999999E5
745 746 -3.3719964999999997E5
746 745 -3.3870064999999997E5
746 746 6.759002999999999E5
746 747 -3.3719964999999997E5
747 746 -3.3870064999999997E5
747 747 6.759002999999999E5
747 748 -3.3719964999999997E5
748 747 -3.3870064999999997E5
748 748 6.759002999999999E5
748 749 -3.3719964999999997E5
749 748 -3.3870064999999997E5
749 749 6.759002999999999E5
749 750 -3.3719964999999997E5
750 749 -3.3870064999999997E5
750 750 6.759002999999999E5
750 751 -3.3719964999999997E5
751 750 -3.3870064999999997E5
751 751 6.759002999999999E5
751 752 -3.3719964999999997E5
752 751 -3.3870064999999997E5
752 752 6.759002999999999E5
752 753 -3.3719964999999997E5
753 752 -3.3870064999999997E5
753 753 6.759002999999999E5
753 754 -3.3719964999999997E5
754 753 -3.3870064999999997E5
754 754 6.759002999999999E5
754 755 -3.3719964999999997E5
755 754 -3.3870064999999997E5
755 755 6.759002999999999E5
755 756 -3.3719964999999997E5
756 755 -3.3870064999999997E5
756 756 6.759002999999999E5
756 757 -3.3719964999999997E5
757 756 -3.3870064999999997E5
757 757 6.759002999999999E5
757 758 -3.3719964999999997E5
758 757 -3.3870064999999997E5
758 758 6.759002999999999E5
758 759 -3.3719964999999997E5
759 758 -3.3870064999999997E5
759 759 6.759002999999999E5
759 760 -3.3719964999999997E5
760 759 -3.3870064999999997E5
760 760 6.759002999999999E5
760 761 -3.3719964999999997E5
761 760 -3.3870064999999997E5
761 761 6.759002999999999E5
761 762 -3.3719964999999997E5
762 761 -3.3870064999999997E5
762 762 6.759002999999999E5
762 763 -3.3719964999999997E5
763 762 -3.3870064999999997E5
763 763 6.759002999999999E5
763 764 -3.3719964999999997E5
764 763 -3.3870064999999997E5
764 764 6.759002999999999E5
764 765 -3.3719964999999997E5
765 764 -3.3870064999999997E5
765 765 6.759002999999999E5
765 766 -3.3719964999999997E5
766 765 -3.3870064999999997E5
766 766 6.759002999999999E5
766 767 -3.3719964999999997E5
767 766 -3.3870064999999997E5
767 767 6.759002999999999E5
767 768 -3.3719964999999997E5
768 767 -3.3870064999999997E5
768 768 6.759002999999999E5
768 769 -3.3719964999999997E5
769 768 -3.3870064999999997E5
769 769 6.759002999999999E5
769 770 -3.3719964999999997E5
770 769 -3.3870064999999997E5
770 770 6.759002999999999E5
770 771 -3.3719964999999997E5
771 770 -3.3870064999999997E5
771 771 6.759002999999999E5
771 772 -3.3719964999999997E5
772 771 -3.3870064999999997E5
772 772 6.759002999999999E5
772 773 -3.3719964999999997E5
773 772 -3.3870064999999997E5
773 773 6.759002999999999E5
773 774 -3.3719964999999997E5
774 773 -3.3870064999999997E5
774 774 6.759002999999999E5
774 775 -3.3719964999999997E5
775 774 -3.3870064999999997E5
775 775 6.759002999999999E5
775 776 -3.3719964999999997E5
776 775 -3.3870064999999997E5
776 776 6.759002999999999E5
776 777 -3.3719964999999997E5
777 776 -3.3870064999999997E5
777 777 6.759002999999999E5
777 778 -3.3719964999999997E5
778 777 -3.3870064999999997E5
778 778 6.759002999999999E5
778 779 -3.3719964999999997E5
779 778 -3.3870064999999997E5
779 779 6.759002999999999E5
779 780 -3.3719964999999997E5
780 779 -3.3870064999999997E5
780 780 6.759002999999999E5
780 781 -3.3719964999999997E5
781 780 -3.3870064999999997E5
781 781 6.759002999999999E5
781 782 -3.3719964999999997E5
782 781 -3.3870064999999997E5
782 782 6.759002999999999E5
782 783 -3.3719964999999997E5
783 782 -3.3870064999999997E5
783 783 6.759002999999999E5
783 784 -3.3719964999999997E5
784 783 -3.3870064999999997E5
784 784 6.759002999999999E5
784 785 -3.3719964999999997E5
785 784 -3.3870064999999997E5
785 785 6.759002999999999E5
785 786 -3.3719964999999997E5
786 785 -3.3870064999999997E5
786 786 6.759002999999999E5
786 787 -3.3719964999999997E5
787 786 -3.3870064999999997E5
787 787 6.759002999999999E5
787 788 -3.3719964999999997E5
788 787 -3.3870064999999997E5
788 788 6.759002999999999E5
788 789 -3.3719964999999997E5
789 788 -3.3870064999999997E5
789 789 6.759002999999999E5
789 790 -3.3719964999999997E5
790 789 -3.3870064999999997E5
790 790 6.759002999999999E5
790 791 -3.3719964999999997E5
791 790 -3.3870064999999997E5
791 791 6.759002999999999E5
791 792 -3.3719964999999997E5
792 791 -3.3870064999999997E5
792 792 6.759002999999999E5
792 793 -3.3719964999999997E5
793 792 -3.3870064999999997E5
793 793 6.759002999999999E5
793 794 -3.3719964999999997E5
794 793 -3.3870064999999997E5
794 794 6.759002999999999E5
794 795 -3.3719964999999997E5
795 794 -3.3870064999999997E5
795 795 6.759002999999999E5
795 796 -3.3719964999999997E5
796 795 -3.3870064999999997E5
796 796 6.759002999999999E5
796 797 -3.3719964999999997E5
797 796 -3.3870064999999997E5
797 797 6.759002999999999E5
797 798 -3.3719964999999997E5
798 797 -3.3870064999999997E5
798 798 6.759002999999999E5
798 799 -3.3719964999999997E5
799 798 -3.3870064999999997E5
799 799 6.759002999999999E5
799 800 -3.3719964999999997E5
800 799 -3.3870064999999997E5
800 800 6.759002999999999E5
800 801 -3.3719964999999997E5
801 800 -3.3870064999999997E5
801 801 6.759002999999999E5
801 802 -3.3719964999999997E5
802 801 -3.3870064999999997E5
802 802 6.759002999999999E5
802 803 -3.3719964999999997E5
803 802 -3.3870064999999997E5
803 803 6.759002999999999E5
803 804 -3.3719964999999997E5
804 803 -3.3870064999999997E5
804 804 6.759002999999999E5
804 805 -3.3719964999999997E5
805 804 -3.3870064999999997E5
805 805 6.759002999999999E5
805 806 -3.3719964999999997E5
806 805 -3.3870064999999997E5
806 806 6.759002999999999E5
806 807 -3.3719964999999997E5
807 806 -3.3870064999999997E5
807 807 6.759002999999999E5
807 808 -3.3719964999999997E5
808 807 -3.3870064999999997E5
808 808 6.759002999999999E5
808 809 -3.3719964999999997E5
809 808 -3.3870064999999997E5
809 809 6.759002999999999E5
809 810 -3.3719964999999997E5
810 809 -3.3870064999999997E5
810 810 6.759002999999999E5
810 811 -3.3719964999999997E5
811 810 -3.3870064999999997E5
811 811 6.759002999999999E5
811 812 -3.3719964999999997E5
812 811 -3.3870064999999997E5
812 812 6.759002999999999E5
812 813 -3.3719964999999997E5
813 812 -3.3870064999999997E5
813 813 6.759002999999999E5
813 814 -3.3719964999999997E5
814 813 -3.3870064999999997E5
814 814 6.759002999999999E5
814 815 -3.3719964999999997E5
815 814 -3.3870064999999997E5
815 815 6.759002999999999E5
815 816 -3.3719964999999997E5
816 815 -3.3870064999999997E5
816 816 6.759002999999999E5
816 817 -3.3719964999999997E5
817 816 -3.3870064999999997E5
817 817 6.759002999999999E5
817 818 -3.3719964999999997E5
818 817 -3.3870064999999997E5
818 818 6.759002999999999E5
818 819 -3.3719964999999997E5
819 818 -3.3870064999999997E5
819 819 6.759002999999999E5
819 820 -3.3719964999999997E5
820 819 -3.3870064999999997E5
820 820 6.759002999999999E5
820 821 -3.3719964999999997E5
821 820 -3.3870064999999997E5
821 821 6.759002999999999E5
821 822 -3.3719964999999997E5
822 821 -3.3870064999999997E5
822 822 6.759002999999999E5
822 823 -3.3719964999999997E5
823 822 -3.3870064999999997E5
823 823 6.759002999999999E5
823 824 -3.3719964999999997E5
824 823 -3.3870064999999997E5
824 824 6.759002999999999E5
824 825 -3.3719964999999997E5
825 824 -3.3870064999999997E5
825 825 6.759002999999999E5
825 826 -3.3719964999999997E5
826 825 -3.3870064999999997E5
826 826 6.759002999999999E5
826 827 -3.3719964999999997E5
827 826 -3.3870064999999997E5
827 827 6.759002999999999E5
827 828 -3.3719964999999997E5
828 827 -3.3870064999999997E5
828 828 6.759002999999999E5
828 829 -3.3719964999999997E5
829 828 -3.3870064999999997E5
829 829 6.759002999999999E5
829 830 -3.3719964999999997E5
830 829 -3.3870064999999997E5
830 830 6.759002999999999E5
830 831 -3.3719964999999997E5
831 830 -3.3870064999999997E5
831 831 6.759002999999999E5
831 832 -3.3719964999999997E5
832 831 -3.3870064999999997E5
832 832 6.759002999999999E5
832 833 -3.3719964999999997E5
833 832 -3.3870064999999997E5
833 833 6.759002999999999E5
833 834 -3.3719964999999997E5
834 833 -3.3870064999999997E5
834 834 6.759002999999999E5
834 835 -3.3719964999999997E5
835 834 -3.3870064999999997E5
835 835 6.759002999999999E5
835 836 -3.3719964999999997E5
836 835 -3.3870064999999997E5
836 836 6.759002999999999E5
836 837 -3.3719964999999997E5
837 836 -3.3870064999999997E5
837 837 6.759002999999999E5
837 838 -3.3719964999999997E5
838 837 -3.3870064999999997E5
838 838 6.759002999999999E5
838 839 -3.3719964999999997E5
839 838 -3.3870064999999997E5
839 839 6.759002999999999E5
839 840 -3.3719964999999997E5
840 839 -3.3870064999999997E5
840 840 6.759002999999999E5
840 841 -3.3719964999999997E5
841 840 -3.3870064999999997E5
841 841 6.759002999999999E5
841 842 -3.3719964999999997E5
842 841 -3.3870064999999997E5
842 842 6.759002999999999E5
842 843 -3.3719964999999997E5
843 842 -3.3870064999999997E5
843 843 6.759002999999999E5
843 844 -3.3719964999999997E5
844 843 -3.3870064999999997E5
844 844 6.759002999999999E5
844 845 -3.3719964999999997E5
845 844 -3.3870064999999997E5
845 845 6.759002999999999E5
845 846 -3.3719964999999997E5
846 845 -3.3870064999999997E5
846 846 6.759002999999999E5
846 847 -3.3719964999999997E5
847 846 -3.3870064999999997E5
847 847 6.759002999999999E5
847 848 -3.3719964999999997E5
848 847 -3.3870064999999997E5
848 848 6.759002999999999E5
848 849 -3.3719964999999997E5
849 848 -3.3870064999999997E5
849 849 6.759002999999999E5
849 850 -3.3719964999999997E5
850 849 -3.3870064999999997E5
850 850 6.759002999999999E5
850 851 -3.3719964999999997E5
851 850 -3.3870064999999997E5
851 851 6.759002999999999E5
851 852 -3.3719964999999997E5
852 851 -3.3870064999999997E5
852 852 6.759002999999999E5
852 853 -3.3719964999999997E5
853 852 -3.3870064999999997E5
853 853 6.759002999999999E5
853 854 -3.3719964999999997E5
854 853 -3.3870064999999997E5
854 854 6.759002999999999E5
854 855 -3.3719964999999997E5
855 854 -3.3870064999999997E5
855 855 6.759002999999999E5
855 856 -3.3719964999999997E5
856 855 -3.3870064999999997E5
856 856 6.759002999999999E5
856 857 -3.3719964999999997E5
857 856 -3.3870064999999997E5
857 857 6.759002999999999E5
857 858 -3.3719964999999997E5
858 857 -3.3870064999999997E5
858 858 6.759002999999999E5
858 859 -3.3719964999999997E5
859 858 -3.3870064999999997E5
859 859 6.759002999999999E5
859 860 -3.3719964999999997E5
860 859 -3.3870064999999997E5
860 860 6.759002999999999E5
860 861 -3.3719964999999997E5
861 860 -3.3870064999999997E5
861 861 6.759002999999999E5
861 862 -3.3719964999999997E5
862 861 -3.3870064999999997E5
862 862 6.759002999999999E5
862 863 -3.3719964999999997E5
863 862 -3.3870064999999997E5
863 863 6.759002999999999E5
863 864 -3.3719964999999997E5
864 863 -3.3870064999999997E5
864 864 6.759002999999999E5
864 865 -3.3719964999999997E5
865 864 -3.3870064999999997E5
865 865 6.759002999999999E5
865 866 -3.3719964999999997E5
866 865 -3.3870064999999997E5
866 866 6.759002999999999E5
866 867 -3.3719964999999997E5
867 866 -3.3870064999999997E5
867 867 6.759002999999999E5
867 868 -3.3719964999999997E5
868 867 -3.3870064999999997E5
868 868 6.759002999999999E5
868 869 -3.3719964999999997E5
869 868 -3.3870064999999997E5
869 869 6.759002999999999E5
869 870 -3.3719964999999997E5
870 869 -3.3870064999999997E5
870 870 6.759002999999999E5
870 871 -3.3719964999999997E5
871 870 -3.3870064999999997E5
871 871 6.759002999999999E5
871 872 -3.3719964999999997E5
872 871 -3.3870064999999997E5
872 872 6.759002999999999E5
872 873 -3.3719964999999997E5
873 872 -3.3870064999999997E5
873 873 6.759002999999999E5
873 874 -3.3719964999999997E5
874 873 -3.3870064999999997E5
874 874 6.759002999999999E5
874 875 -3.3719964999999997E5
875 874 -3.3870064999999997E5
875 875 6.759002999999999E5
875 876 -3.3719964999999997E5
876 875 -3.3870064999999997E5
876 876 6.759002999999999E5
876 877 -3.3719964999999997E5
877 876 -3.3870064999999997E5
877 877 6.759002999999999E5
877 878 -3.3719964999999997E5
878 877 -3.3870064999999997E5
878 878 6.759002999999999E5
878 879 -3.3719964999999997E5
879 878 -3.3870064999999997E5
879 879 6.759002999999999E5
879 880 -3.3719964999999997E5
880 879 -3.3870064999999997E5
880 880 6.759002999999999E5
880 881 -3.3719964999999997E5
881 880 -3.3870064999999997E5
881 881 6.759002999999999E5
881 882 -3.3719964999999997E5
882 881 -3.3870064999999997E5
882 882 6.759002999999999E5
882 883 -3.3719964999999997E5
883 882 -3.3870064999999997E5
883 883 6.759002999999999E5
883 884 -3.3719964999999997E5
884 883 -3.3870064999999997E5
884 884 6.759002999999999E5
884 885 -3.3719964999999997E5
885 884 -3.3870064999999997E5
885 885 6.759002999999999E5
885 886 -3.3719964999999997E5
886 885 -3.3870064999999997E5
886 886 6.759002999999999E5
886 887 -3.3719964999999997E5
887 886 -3.3870064999999997E5
887 887 6.759002999999999E5
887 888 -3.3719964999999997E5
888 887 -3.3870064999999997E5
888 888 6.759002999999999E5
888 889 -3.3719964999999997E5
889 888 -3.3870064999999997E5
889 889 6.759002999999999E5
889 890 -3.3719964999999997E5
890 889 -3.3870064999999997E5
890 890 6.759002999999999E5
890 891 -3.3719964999999997E5
891 890 -3.3870064999999997E5
891 891 6.759002999999999E5
891 892 -3.3719964999999997E5
892 891 -3.3870064999999997E5
892 892 6.759002999999999E5
892 893 -3.3719964999999997E5
893 892 -3.3870064999999997E5
893 893 6.759002999999999E5
893 894 -3.3719964999999997E5
894 893 -3.3870064999999997E5
894 894 6.759002999999999E5
894 895 -3.3719964999999997E5
895 894 -3.3870064999999997E5
895 895 6.759002999999999E5
895 896 -3.3719964999999997E5
896 895 -3.3870064999999997E5
896 896 6.759002999999999E5
896 897 -3.3719964999999997E5
897 896 -3.3870064999999997E5
897 897 6.759002999999999E5
897 898 -3.3719964999999997E5
898 897 -3.3870064999999997E5
898 898 6.759002999999999E5
898 899 -3.3719964999999997E5
899 898 -3.3870064999999997E5
899 899 6.759002999999999E5
899 900 -3.3719964999999997E5
900 899 -3.3870064999999997E5
900 900 6.759002999999999E5
900 901 -3.3719964999999997E5
901 900 -3.3870064999999997E5
901 901 6.759002999999999E5
901 902 -3.3719964999999997E5
902 901 -3.3870064999999997E5
902 902 6.759002999999999E5
902 903 -3.3719964999999997E5
903 902 -3.3870064999999997E5
903 903 6.759002999999999E5
903 904 -3.3719964999999997E5
904 903 -3.3870064999999997E5
904 904 6.759002999999999E5
904 905 -3.3719964999999997E5
905 904 -3.3870064999999997E5
905 905 6.759002999999999E5
905 906 -3.3719964999999997E5
906 905 -3.3870064999999997E5
906 906 6.759002999999999E5
906 907 -3.3719964999999997E5
907 906 -3.3870064999999997E5
907 907 6.759002999999999E5
907 908 -3.3719964999999997E5
908 907 -3.3870064999999997E5
908 908 6.759002999999999E5
908 909 -3.3719964999999997E5
909 908 -3.3870064999999997E5
909 909 6.759002999999999E5
909 910 -3.3719964999999997E5
910 909 -3.3870064999999997E5
910 910 6.759002999999999E5
910 911 -3.3719964999999997E5
911 910 -3.3870064999999997E5
911 911 6.759002999999999E5
911 912 -3.3719964999999997E5
912 911 -3.3870064999999997E5
912 912 6.759002999999999E5
912 913 -3.3719964999999997E5
913 912 -3.3870064999999997E5
913 913 6.759002999999999E5
913 914 -3.3719964999999997E5
914 913 -3.3870064999999997E5
914 914 6.759002999999999E5
914 915 -3.3719964999999997E5
915 914 -3.3870064999999997E5
915 915 6.759002999999999E5
915 916 -3.3719964999999997E5
916 915 -3.3870064999999997E5
916 916 6.759002999999999E5
916 917 -3.3719964999999997E5
917 916 -3.3870064999999997E5
917 917 6.759002999999999E5
917 918 -3.3719964999999997E5
918 917 -3.3870064999999997E5
918 918 6.759002999999999E5
918 919 -3.3719964999999997E5
919 918 -3.3870064999999997E5
919 919 6.759002999999999E5
919 920 -3.3719964999999997E5
920 919 -3.3870064999999997E5
920 920 6.759002999999999E5
920 921 -3.3719964999999997E5
921 920 -3.3870064999999997E5
921 921 6.759002999999999E5
921 922 -3.3719964999999997E5
922 921 -3.3870064999999997E5
922 922 6.759002999999999E5
922 923 -3.3719964999999997E5
923 922 -3.3870064999999997E5
923 923 6.759002999999999E5
923 924 -3.3719964999999997E5
924 923 -3.3870064999999997E5
924 924 6.759002999999999E5
924 925 -3.3719964999999997E5
925 924 -3.3870064999999997E5
925 925 6.759002999999999E5
925 926 -3.3719964999999997E5
926 925 -3.3870064999999997E5
926 926 6.759002999999999E5
926 927 -3.3719964999999997E5
927 926 -3.3870064999999997E5
927 927 6.759002999999999E5
927 928 -3.3719964999999997E5
928 927 -3.3870064999999997E5
928 928 6.759002999999999E5
928 929 -3.3719964999999997E5
929 928 -3.3870064999999997E5
929 929 6.759002999999999E5
929 930 -3.3719964999999997E5
930 929 -3.3870064999999997E5
930 930 6.759002999999999E5
930 931 -3.3719964999999997E5
931 930 -3.3870064999999997E5
931 931 6.759002999999999E5
931 932 -3.3719964999999997E5
932 931 -3.3870064999999997E5
932 932 6.759002999999999E5
932 933 -3.3719964999999997E5
933 932 -3.3870064999999997E5
933 933 6.759002999999999E5
933 934 -3.3719964999999997E5
934 933 -3.3870064999999997E5
934 934 6.759002999999999E5
934 935 -3.3719964999999997E5
935 934 -3.3870064999999997E5
935 935 6.759002999999999E5
935 936 -3.3719964999999997E5
936 935 -3.3870064999999997E5
936 936 6.759002999999999E5
936 937 -3.3719964999999997E5
937 936 -3.3870064999999997E5
937 937 6.759002999999999E5
937 938 -3.3719964999999997E5
938 937 -3.3870064999999997E5
938 938 6.759002999999999E5
938 939 -3.3719964999999997E5
939 938 -3.3870064999999997E5
939 939 6.759002999999999E5
939 940 -3.3719964999999997E5
940 939 -3.3870064999999997E5
940 940 6.759002999999999E5
940 941 -3.3719964999999997E5
941 940 -3.3870064999999997E5
941 941 6.759002999999999E5
941 942 -3.3719964999999997E5
942 941 -3.3870064999999997E5
942 942 6.759002999999999E5
942 943 -3.3719964999999997E5
943 942 -3.3870064999999997E5
943 943 6.759002999999999E5
943 944 -3.3719964999999997E5
944 943 -3.3870064999999997E5
944 944 6.759002999999999E5
944 945 -3.3719964999999997E5
945 944 -3.3870064999999997E5
945 945 6.759002999999999E5
945 946 -3.3719964999999997E5
946 945 -3.3870064999999997E5
946 946 6.759002999999999E5
946 947 -3.3719964999999997E5
947 946 -3.3870064999999997E5
947 947 6.759002999999999E5
947 948 -3.3719964999999997E5
948 947 -3.3870064999999997E5
948 948 6.759002999999999E5
948 949 -3.3719964999999997E5
949 948 -3.3870064999999997E5
949 949 6.759002999999999E5
949 950 -3.3719964999999997E5
950 949 -3.3870064999999997E5
950 950 6.759002999999999E5
950 951 -3.3719964999999997E5
951 950 -3.3870064999999997E5
951 951 6.759002999999999E5
951 952 -3.3719964999999997E5
952 951 -3.3870064999999997E5
952 952 6.759002999999999E5
952 953 -3.3719964999999997E5
953 952 -3.3870064999999997E5
953 953 6.759002999999999E5
953 954 -3.3719964999999997E5
954 953 -3.3870064999999997E5
954 954 6.759002999999999E5
954 955 -3.3719964999999997E5
955 954 -3.3870064999999997E5
955 955 6.759002999999999E5
955 956 -3.3719964999999997E5
956 955 -3.3870064999999997E5
956 956 6.759002999999999E5
956 957 -3.3719964999999997E5
957 956 -3.3870064999999997E5
957 957 6.759002999999999E5
957 958 -3.3719964999999997E5
958 957 -3.3870064999999997E5
958 958 6.759002999999999E5
958 959 -3.3719964999999997E5
959 958 -3.3870064999999997E5
959 959 6.759002999999999E5
959 960 -3.3719964999999997E5
960 959 -3.3870064999999997E5
960 960 6.759002999999999E5
960 961 -3.3719964999999997E5
961 960 -3.3870064999999997E5
961 961 6.759002999999999E5
961 962 -3.3719964999999997E5
962 961 -3.3870064999999997E5
962 962 6.759002999999999E5
962 963 -3.3719964999999997E5
963 962 -3.3870064999999997E5
963 963 6.759002999999999E5
963 964 -3.3719964999999997E5
964 963 -3.3870064999999997E5
964 964 6.759002999999999E5
964 965 -3.3719964999999997E5
965 964 -3.3870064999999997E5
965 965 6.759002999999999E5
965 966 -3.3719964999999997E5
966 965 -3.3870064999999997E5
966 966 6.759002999999999E5
966 967 -3.3719964999999997E5
967 966 -3.3870064999999997E5
967 967 6.759002999999999E5
967 968 -3.3719964999999997E5
968 967 -3.3870064999999997E5
968 968 6.759002999999999E5
968 969 -3.3719964999999997E5
969 968 -3.3870064999999997E5
969 969 6.759002999999999E5
969 970 -3.3719964999999997E5
970 969 -3.3870064999999997E5
970 970 6.759002999999999E5
970 971 -3.3719964999999997E5
971 970 -3.3870064999999997E5
971 971 6.759002999999999E5
971 972 -3.3719964999999997E5
972 971 -3.3870064999999997E5
972 972 6.759002999999999E5
972 973 -3.3719964999999997E5
973 972 -3.3870064999999997E5
973 973 6.759002999999999E5
973 974 -3.3719964999999997E5
974 973 -3.3870064999999997E5
974 974 6.759002999999999E5
974 975 -3.3719964999999997E5
975 974 -3.3870064999999997E5
975 975 6.759002999999999E5
975 976 -3.3719964999999997E5
976 975 -3.3870064999999997E5
976 976 6.759002999999999E5
976 977 -3.3719964999999997E5
977 976 -3.3870064999999997E5
977 977 6.759002999999999E5
977 978 -3.3719964999999997E5
978 977 -3.3870064999999997E5
978 978 6.759002999999999E5
978 979 -3.3719964999999997E5
979 978 -3.3870064999999997E5
979 979 6.759002999999999E5
979 980 -3.3719964999999997E5
980 979 -3.3870064999999997E5
980 980 6.759002999999999E5
980 981 -3.3719964999999997E5
981 980 -3.3870064999999997E5
981 981 6.759002999999999E5
981 982 -3.3719964999999997E5
982 981 -3.3870064999999997E5
982 982 6.759002999999999E5
982 983 -3.3719964999999997E5
983 982 -3.3870064999999997E5
983 983 6.759002999999999E5
983 984 -3.3719964999999997E5
984 983 -3.3870064999999997E5
984 984 6.759002999999999E5
984 985 -3.3719964999999997E5
985 984 -3.3870064999999997E5
985 985 6.759002999999999E5
985 986 -3.3719964999999997E5
986 985 -3.3870064999999997E5
986 986 6.759002999999999E5
986 987 -3.3719964999999997E5
987 986 -3.3870064999999997E5
987 987 6.759002999999999E5
987 988 -3.3719964999999997E5
988 987 -3.3870064999999997E5
988 988 6.759002999999999E5
988 989 -3.3719964999999997E5
989 988 -3.3870064999999997E5
989 989 6.759002999999999E5
989 990 -3.3719964999999997E5
990 989 -3.3870064999999997E5
990 990 6.759002999999999E5
990 991 -3.3719964999999997E5
991 990 -3.3870064999999997E5
991 991 6.759002999999999E5
991 992 -3.3719964999999997E5
992 991 -3.3870064999999997E5
992 992 6.759002999999999E5
992 993 -3.3719964999999997E5
993 992 -3.3870064999999997E5
993 993 6.759002999999999E5
993 994 -3.3719964999999997E5
994 993 -3.3870064999999997E5
994 994 6.759002999999999E5
994 995 -3.3719964999999997E5
995 994 -3.3870064999999997E5
995 995 6.759002999999999E5
995 996 -3.3719964999999997E5
996 995 -3.3870064999999997E5
996 996 6.759002999999999E5
996 997 -3.3719964999999997E5
997 996 -3.3870064999999997E5
997 997 6.759002999999999E5
997 998 -3.3719964999999997E5
998 997 -3.3870064999999997E5
998 998 6.759002999999999E5
998 999 -3.3719964999999997E5
999 998 -3.3870064999999997E5
999 999 6.759002999999999E5
999 1000 -3.3719964999999997E5
1000 999 -3.3870064999999997E5
1000 1000 6.759002999999999E5
1000 1001 -3.3719964999999997E5
1001 1000 -3.3870064999999997E5
1001 1001 6.759002999999999E5
1001 1002 -3.3719964999999997E5
1002 1001 -3.3870064999999997E5
1002 1002 6.759002999999999E5
1002 1003 -3.3719964999999997E5
1003 1002 -3.3870064999999997E5
1003 1003 6.759002999999999E5
1003 1004 -3.3719964999999997E5
1004 1003 -3.3870064999999997E5
1004 1004 6.759002999999999E5
1004 1005 -3.3719964999999997E5
1005 1004 -3.3870064999999997E5
1005 1005 6.759002999999999E5
1005 1006 -3.3719964999999997E5
1006 1005 -3.3870064999999997E5
1006 1006 6.759002999999999E5
1006 1007 -3.3719964999999997E5
1007 1006 -3.3870064999999997E5
1007 1007 6.759002999999999E5
1007 1008 -3.3719964999999997E5
1008 1007 -3.3870064999999997E5
1008 1008 6.759002999999999E5
1008 1009 -3.3719964999999997E5
1009 1008 -3.3870064999999997E5
1009 1009 6.759002999999999E5
1009 1010 -3.3719964999999997E5
1010 1009 -3.3870064999999997E5
1010 1010 6.759002999999999E5
1010 1011 -3.3719964999999997E5
1011 1010 -3.3870064999999997E5
1011 1011 6.759002999999999E5
1011 1012 -3.3719964999999997E5
1012 1011 -3.3870064999999997E5
1012 1012 6.759002999999999E5
1012 1013 -3.3719964999999997E5
1013 1012 -3.3870064999999997E5
1013 1013 6.759002999999999E5
1013 1014 -3.3719964999999997E5
1014 1013 -3.3870064999999997E5
1014 1014 6.759002999999999E5
1014 1015 -3.3719964999999997E5
1015 1014 -3.3870064999999997E5
1015 1015 6.759002999999999E5
1015 1016 -3.3719964999999997E5
1016 1015 -3.3870064999999997E5
1016 1016 6.759002999999999E5
1016 1017 -3.3719964999999997E5
1017 1016 -3.3870064999999997E5
1017 1017 6.759002999999999E5
1017 1018 -3.3719964999999997E5
1018 1017 -3.3870064999999997E5
1018 1018 6.759002999999999E5
1018 1019 -3.3719964999999997E5
1019 1018 -3.3870064999999997E5
1019 1019 6.759002999999999E5
1019 1020 -3.3719964999999997E5
1020 1019 -3.3870064999999997E5
1020 1020 6.759002999999999E5
1020 1021 -3.3719964999999997E5
1021 1020 -3.3870064999999997E5
1021 1021 6.759002999999999E5
1021 1022 -3.3719964999999997E5
1022 1021 -3.3870064999999997E5
1022 1022 6.759002999999999E5
1022 1023 -3.3719964999999997E5
1023 1022 -3.3870064999999997E5
1023 1023 6.759002999999999E5
1023 1024 -3.3719964999999997E5
1024 1023 -3.3870064999999997E5
1024 1024 6.759002999999999E5
1024 1025 -3.3719964999999997E5
1025 1024 -3.3870064999999997E5
1025 1025 6.759002999999999E5
1025 1026 -3.3719964999999997E5
1026 1025 -3.3870064999999997E5
1026 1026 6.759002999999999E5
1026 1027 -3.3719964999999997E5
1027 1026 -3.3870064999999997E5
1027 1027 6.759002999999999E5
1027 1028 -3.3719964999999997E5
1028 1027 -3.3870064999999997E5
1028 1028 6.759002999999999E5
1028 1029 -3.3719964999999997E5
1029 1028 -3.3870064999999997E5
1029 1029 6.759002999999999E5
1029 1030 -3.3719964999999997E5
1030 1029 -3.3870064999999997E5
1030 1030 6.759002999999999E5
1030 1031 -3.3719964999999997E5
1031 1030 -3.3870064999999997E5
1031 1031 6.759002999999999E5
1031 1032 -3.3719964999999997E5
1032 1031 -3.3870064999999997E5
1032 1032 6.759002999999999E5
1032 1033 -3.3719964999999997E5
1033 1032 -3.3870064999999997E5
1033 1033 6.759002999999999E5
1033 1034 -3.3719964999999997E5
1034 1033 -3.3870064999999997E5
1034 1034 6.759002999999999E5
1034 1035 -3.3719964999999997E5
1035 1034 -3.3870064999999997E5
1035 1035 6.759002999999999E5
1035 1036 -3.3719964999999997E5
1036 1035 -3.3870064999999997E5
1036 1036 6.759002999999999E5
1036 1037 -3.3719964999999997E5
1037 1036 -3.3870064999999997E5
1037 1037 6.759002999999999E5
1037 1038 -3.3719964999999997E5
1038 1037 -3.3870064999999997E5
1038 1038 6.759002999999999E5
1038 1039 -3.3719964999999997E5
1039 1038 -3.3870064999999997E5
1039 1039 6.759002999999999E5
1039 1040 -3.3719964999999997E5
1040 1039 -3.3870064999999997E5
1040 1040 6.759002999999999E5
1040 1041 -3.3719964999999997E5
1041 1040 -3.3870064999999997E5
1041 1041 6.759002999999999E5
1041 1042 -3.3719964999999997E5
1042 1041 -3.3870064999999997E5
1042 1042 6.759002999999999E5
1042 1043 -3.3719964999999997E5
1043 1042 -3.3870064999999997E5
1043 1043 6.759002999999999E5
1043 1044 -3.3719964999999997E5
1044 1043 -3.3870064999999997E5
1044 1044 6.759002999999999E5
1044 1045 -3.3719964999999997E5
1045 1044 -3.3870064999999997E5
1045 1045 6.759002999999999E5
1045 1046 -3.3719964999999997E5
1046 1045 -3.3870064999999997E5
1046 1046 6.759002999999999E5
1046 1047 -3.3719964999999997E5
1047 1046 -3.3870064999999997E5
1047 1047 6.759002999999999E5
1047 1048 -3.3719964999999997E5
1048 1047 -3.3870064999999997E5
1048 1048 6.759002999999999E5
1048 1049 -3.3719964999999997E5
1049 1048 -3.3870064999999997E5
1049 1049 6.759002999999999E5
1049 1050 -3.3719964999999997E5
1050 1049 -3.3870064999999997E5
1050 1050 6.759002999999999E5
1050 1051 -3.3719964999999997E5
1051 1050 -3.3870064999999997E5
1051 1051 6.759002999999999E5
1051 1052 -3.3719964999999997E5
1052 1051 -3.3870064999999997E5
1052 1052 6.759002999999999E5
1052 1053 -3.3719964999999997E5
1053 1052 -3.3870064999999997E5
1053 1053 6.759002999999999E5
1053 1054 -3.3719964999999997E5
1054 1053 -3.3870064999999997E5
1054 1054 6.759002999999999E5
1054 1055 -3.3719964999999997E5
1055 1054 -3.3870064999999997E5
1055 1055 6.759002999999999E5
1055 1056 -3.3719964999999997E5
1056 1055 -3.3870064999999997E5
1056 1056 6.759002999999999E5
1056 1057 -3.3719964999999997E5
1057 1056 -3.3870064999999997E5
1057 1057 6.759002999999999E5
1057 1058 -3.3719964999999997E5
1058 1057 -3.3870064999999997E5
1058 1058 6.759002999999999E5
1058 1059 -3.3719964999999997E5
1059 1058 -3.3870064999999997E5
1059 1059 6.759002999999999E5
1059 1060 -3.3719964999999997E5
1060 1059 -3.3870064999999997E5
1060 1060 6.759002999999999E5
1060 1061 -3.3719964999999997E5
1061 1060 -3.3870064999999997E5
1061 1061 6.759002999999999E5
1061 1062 -3.3719964999999997E5
1062 1061 -3.3870064999999997E5
1062 1062 6.759002999999999E5
1062 1063 -3.3719964999999997E5
1063 1062 -3.3870064999999997E5
1063 1063 6.759002999999999E5
1063 1064 -3.3719964999999997E5
1064 1063 -3.3870064999999997E5
1064 1064 6.759002999999999E5
1064 1065 -3.3719964999999997E5
1065 1064 -3.3870064999999997E5
1065 1065 6.759002999999999E5
1065 1066 -3.3719964999999997E5
1066 1065 -3.3870064999999997E5
1066 1066 6.759002999999999E5
1066 1067 -3.3719964999999997E5
1067 1066 -3.3870064999999997E5
1067 1067 6.759002999999999E5
1067 1068 -3.3719964999999997E5
1068 1067 -3.3870064999999997E5
1068 1068 6.759002999999999E5
1068 1069 -3.3719964999999997E5
1069 1068 -3.3870064999999997E5
1069 1069 6.759002999999999E5
1069 1070 -3.3719964999999997E5
1070 1069 -3.3870064999999997E5
1070 1070 6.759002999999999E5
1070 1071 -3.3719964999999997E5
1071 1070 -3.3870064999999997E5
1071 1071 6.759002999999999E5
1071 1072 -3.3719964999999997E5
1072 1071 -3.3870064999999997E5
1072 1072 6.759002999999999E5
1072 1073 -3.3719964999999997E5
1073 1072 -3.3870064999999997E5
1073 1073 6.759002999999999E5
1073 1074 -3.3719964999999997E5
1074 1073 -3.3870064999999997E5
1074 1074 6.759002999999999E5
1074 1075 -3.3719964999999997E5
1075 1074 -3.3870064999999997E5
1075 1075 6.759002999999999E5
1075 1076 -3.3719964999999997E5
1076 1075 -3.3870064999999997E5
1076 1076 6.759002999999999E5
1076 1077 -3.3719964999999997E5
1077 1076 -3.3870064999999997E5
1077 1077 6.759002999999999E5
1077 1078 -3.3719964999999997E5
1078 1077 -3.3870064999999997E5
1078 1078 6.759002999999999E5
1078 1079 -3.3719964999999997E5
1079 1078 -3.3870064999999997E5
1079 1079 6.759002999999999E5
1079 1080 -3.3719964999999997E5
1080 1079 -3.3870064999999997E5
1080 1080 6.759002999999999E5
1080 1081 -3.3719964999999997E5
1081 1080 -3.3870064999999997E5
1081 1081 6.759002999999999E5
1081 1082 -3.3719964999999997E5
1082 1081 -3.3870064999999997E5
1082 1082 6.759002999999999E5
1082 1083 -3.3719964999999997E5
1083 1082 -3.3870064999999997E5
1083 1083 6.759002999999999E5
1083 1084 -3.3719964999999997E5
1084 1083 -3.3870064999999997E5
1084 1084 6.759002999999999E5
1084 1085 -3.3719964999999997E5
1085 1084 -3.3870064999999997E5
1085 1085 6.759002999999999E5
1085 1086 -3.3719964999999997E5
1086 1085 -3.3870064999999997E5
1086 1086 6.759002999999999E5
1086 1087 -3.3719964999999997E5
1087 1086 -3.3870064999999997E5
1087 1087 6.759002999999999E5
1087 1088 -3.3719964999999997E5
1088 1087 -3.3870064999999997E5
1088 1088 6.759002999999999E5
1088 1089 -3.3719964999999997E5
1089 1088 -3.3870064999999997E5
1089 1089 6.759002999999999E5
1089 1090 -3.3719964999999997E5
1090 1089 -3.3870064999999997E5
1090 1090 6.759002999999999E5
1090 1091 -3.3719964999999997E5
1091 1090 -3.3870064999999997E5
1091 1091 6.759002999999999E5
1091 1092 -3.3719964999999997E5
1092 1091 -3.3870064999999997E5
1092 1092 6.759002999999999E5
1092 1093 -3.3719964999999997E5
1093 1092 -3.3870064999999997E5
1093 1093 6.759002999999999E5
1093 1094 -3.3719964999999997E5
1094 1093 -3.3870064999999997E5
1094 1094 6.759002999999999E5
1094 1095 -3.3719964999999997E5
1095 1094 -3.3870064999999997E5
1095 1095 6.759002999999999E5
1095 1096 -3.3719964999999997E5
1096 1095 -3.3870064999999997E5
1096 1096 6.759002999999999E5
1096 1097 -3.3719964999999997E5
1097 1096 -3.3870064999999997E5
1097 1097 6.759002999999999E5
1097 1098 -3.3719964999999997E5
1098 1097 -3.3870064999999997E5
1098 1098 6.759002999999999E5
1098 1099 -3.3719964999999997E5
1099 1098 -3.3870064999999997E5
1099 1099 6.759002999999999E5
1099 1100 -3.3719964999999997E5
1100 1099 -3.3870064999999997E5
1100 1100 6.759002999999999E5
1100 1101 -3.3719964999999997E5
1101 1100 -3.3870064999999997E5
1101 1101 6.759002999999999E5
1101 1102 -3.3719964999999997E5
1102 1101 -3.3870064999999997E5
1102 1102 6.759002999999999E5
1102 1103 -3.3719964999999997E5
1103 1102 -3.3870064999999997E5
1103 1103 6.759002999999999E5
1103 1104 -3.3719964999999997E5
1104 1103 -3.3870064999999997E5
1104 1104 6.759002999999999E5
1104 1105 -3.3719964999999997E5
1105 1104 -3.3870064999999997E5
1105 1105 6.759002999999999E5
1105 1106 -3.3719964999999997E5
1106 1105 -3.3870064999999997E5
1106 1106 6.759002999999999E5
1106 1107 -3.3719964999999997E5
1107 1106 -3.3870064999999997E5
1107 1107 6.759002999999999E5
1107 1108 -3.3719964999999997E5
1108 1107 -3.3870064999999997E5
1108 1108 6.759002999999999E5
1108 1109 -3.3719964999999997E5
1109 1108 -3.3870064999999997E5
1109 1109 6.759002999999999E5
1109 1110 -3.3719964999999997E5
1110 1109 -3.3870064999999997E5
1110 1110 6.759002999999999E5
1110 1111 -3.3719964999999997E5
1111 1110 -3.3870064999999997E5
1111 1111 6.759002999999999E5
1111 1112 -3.3719964999999997E5
1112 1111 -3.3870064999999997E5
1112 1112 6.759002999999999E5
1112 1113 -3.3719964999999997E5
1113 1112 -3.3870064999999997E5
1113 1113 6.759002999999999E5
1113 1114 -3.3719964999999997E5
1114 1113 -3.3870064999999997E5
1114 1114 6.759002999999999E5
1114 1115 -3.3719964999999997E5
1115 1114 -3.3870064999999997E5
1115 1115 6.759002999999999E5
1115 1116 -3.3719964999999997E5
1116 1115 -3.3870064999999997E5
1116 1116 6.759002999999999E5
1116 1117 -3.3719964999999997E5
1117 1116 -3.3870064999999997E5
1117 1117 6.759002999999999E5
1117 1118 -3.3719964999999997E5
1118 1117 -3.3870064999999997E5
1118 1118 6.759002999999999E5
1118 1119 -3.3719964999999997E5
1119 1118 -3.3870064999999997E5
1119 1119 6.759002999999999E5
1119 1120 -3.3719964999999997E5
1120 1119 -3.3870064999999997E5
1120 1120 6.759002999999999E5
1120 1121 -3.3719964999999997E5
1121 1120 -3.3870064999999997E5
1121 1121 6.759002999999999E5
1121 1122 -3.3719964999999997E5
1122 1121 -3.3870064999999997E5
1122 1122 6.759002999999999E5
1122 1123 -3.3719964999999997E5
1123 1122 -3.3870064999999997E5
1123 1123 6.759002999999999E5
1123 1124 -3.3719964999999997E5
1124 1123 -3.3870064999999997E5
1124 1124 6.759002999999999E5
1124 1125 -3.3719964999999997E5
1125 1124 -3.3870064999999997E5
1125 1125 6.759002999999999E5
1125 1126 -3.3719964999999997E5
1126 1125 -3.3870064999999997E5
1126 1126 6.759002999999999E5
1126 1127 -3.3719964999999997E5
1127 1126 -3.3870064999999997E5
1127 1127 6.759002999999999E5
1127 1128 -3.3719964999999997E5
1128 1127 -3.3870064999999997E5
1128 1128 6.759002999999999E5
1128 1129 -3.3719964999999997E5
1129 1128 -3.3870064999999997E5
1129 1129 6.759002999999999E5
1129 1130 -3.3719964999999997E5
1130 1129 -3.3870064999999997E5
1130 1130 6.759002999999999E5
1130 1131 -3.3719964999999997E5
1131 1130 -3.3870064999999997E5
1131 1131 6.759002999999999E5
1131 1132 -3.3719964999999997E5
1132 1131 -3.3870064999999997E5
1132 1132 6.759002999999999E5
1132 1133 -3.3719964999999997E5
1133 1132 -3.3870064999999997E5
1133 1133 6.759002999999999E5
1133 1134 -3.3719964999999997E5
1134 1133 -3.3870064999999997E5
1134 1134 6.759002999999999E5
1134 1135 -3.3719964999999997E5
1135 1134 -3.3870064999999997E5
1135 1135 6.759002999999999E5
1135 1136 -3.3719964999999997E5
1136 1135 -3.3870064999999997E5
1136 1136 6.759002999999999E5
1136 1137 -3.3719964999999997E5
1137 1136 -3.3870064999999997E5
1137 1137 6.759002999999999E5
1137 1138 -3.3719964999999997E5
1138 1137 -3.3870064999999997E5
1138 1138 6.759002999999999E5
1138 1139 -3.3719964999999997E5
1139 1138 -3.3870064999999997E5
1139 1139 6.759002999999999E5
1139 1140 -3.3719964999999997E5
1140 1139 -3.3870064999999997E5
1140 1140 6.759002999999999E5
1140 1141 -3.3719964999999997E5
1141 1140 -3.3870064999999997E5
1141 1141 6.759002999999999E5
1141 1142 -3.3719964999999997E5
1142 1141 -3.3870064999999997E5
1142 1142 6.759002999999999E5
1142 1143 -3.3719964999999997E5
1143 1142 -3.3870064999999997E5
1143 1143 6.759002999999999E5
1143 1144 -3.3719964999999997E5
1144 1143 -3.3870064999999997E5
1144 1144 6.759002999999999E5
1144 1145 -3.3719964999999997E5
1145 1144 -3.3870064999999997E5
1145 1145 6.759002999999999E5
1145 1146 -3.3719964999999997E5
1146 1145 -3.3870064999999997E5
1146 1146 6.759002999999999E5
1146 1147 -3.3719964999999997E5
1147 1146 -3.3870064999999997E5
1147 1147 6.759002999999999E5
1147 1148 -3.3719964999999997E5
1148 1147 -3.3870064999999997E5
1148 1148 6.759002999999999E5
1148 1149 -3.3719964999999997E5
1149 1148 -3.3870064999999997E5
1149 1149 6.759002999999999E5
1149 1150 -3.3719964999999997E5
1150 1149 -3.3870064999999997E5
1150 1150 6.759002999999999E5
1150 1151 -3.3719964999999997E5
1151 1150 -3.3870064999999997E5
1151 1151 6.759002999999999E5
1151 1152 -3.3719964999999997E5
1152 1151 -3.3870064999999997E5
1152 1152 6.759002999999999E5
1152 1153 -3.3719964999999997E5
1153 1152 -3.3870064999999997E5
1153 1153 6.759002999999999E5
1153 1154 -3.3719964999999997E5
1154 1153 -3.3870064999999997E5
1154 1154 6.759002999999999E5
1154 1155 -3.3719964999999997E5
1155 1154 -3.3870064999999997E5
1155 1155 6.759002999999999E5
1155 1156 -3.3719964999999997E5
1156 1155 -3.3870064999999997E5
1156 1156 6.759002999999999E5
1156 1157 -3.3719964999999997E5
1157 1156 -3.3870064999999997E5
1157 1157 6.759002999999999E5
1157 1158 -3.3719964999999997E5
1158 1157 -3.3870064999999997E5
1158 1158 6.759002999999999E5
1158 1159 -3.3719964999999997E5
1159 1158 -3.3870064999999997E5
1159 1159 6.759002999999999E5
1159 1160 -3.3719964999999997E5
1160 1159 -3.3870064999999997E5
1160 1160 6.759002999999999E5
1160 1161 -3.3719964999999997E5
1161 1160 -3.3870064999999997E5
1161 1161 6.759002999999999E5
1161 1162 -3.3719964999999997E5
1162 1161 -3.3870064999999997E5
1162 1162 6.759002999999999E5
1162 1163 -3.3719964999999997E5
1163 1162 -3.3870064999999997E5
1163 1163 6.759002999999999E5
1163 1164 -3.3719964999999997E5
1164 1163 -3.3870064999999997E5
1164 1164 6.759002999999999E5
1164 1165 -3.3719964999999997E5
1165 1164 -3.3870064999999997E5
1165 1165 6.759002999999999E5
1165 1166 -3.3719964999999997E5
1166 1165 -3.3870064999999997E5
1166 1166 6.759002999999999E5
1166 1167 -3.3719964999999997E5
1167 1166 -3.3870064999999997E5
1167 1167 6.759002999999999E5
1167 1168 -3.3719964999999997E5
1168 1167 -3.3870064999999997E5
1168 1168 6.759002999999999E5
1168 1169 -3.3719964999999997E5
1169 1168 -3.3870064999999997E5
1169 1169 6.759002999999999E5
1169 1170 -3.3719964999999997E5
1170 1169 -3.3870064999999997E5
1170 1170 6.759002999999999E5
1170 1171 -3.3719964999999997E5
1171 1170 -3.3870064999999997E5
1171 1171 6.759002999999999E5
1171 1172 -3.3719964999999997E5
1172 1171 -3.3870064999999997E5
1172 1172 6.759002999999999E5
1172 1173 -3.3719964999999997E5
1173 1172 -3.3870064999999997E5
1173 1173 6.759002999999999E5
1173 1174 -3.3719964999999997E5
1174 1173 -3.3870064999999997E5
1174 1174 6.759002999999999E5
1174 1175 -3.3719964999999997E5
1175 1174 -3.3870064999999997E5
1175 1175 6.759002999999999E5
1175 1176 -3.3719964999999997E5
1176 1175 -3.3870064999999997E5
1176 1176 6.759002999999999E5
1176 1177 -3.3719964999999997E5
1177 1176 -3.3870064999999997E5
1177 1177 6.759002999999999E5
1177 1178 -3.3719964999999997E5
1178 1177 -3.3870064999999997E5
1178 1178 6.759002999999999E5
1178 1179 -3.3719964999999997E5
1179 1178 -3.3870064999999997E5
1179 1179 6.759002999999999E5
1179 1180 -3.3719964999999997E5
1180 1179 -3.3870064999999997E5
1180 1180 6.759002999999999E5
1180 1181 -3.3719964999999997E5
1181 1180 -3.3870064999999997E5
1181 1181 6.759002999999999E5
1181 1182 -3.3719964999999997E5
1182 1181 -3.3870064999999997E5
1182 1182 6.759002999999999E5
1182 1183 -3.3719964999999997E5
1183 1182 -3.3870064999999997E5
1183 1183 6.759002999999999E5
1183 1184 -3.3719964999999997E5
1184 1183 -3.3870064999999997E5
1184 1184 6.759002999999999E5
1184 1185 -3.3719964999999997E5
1185 1184 -3.3870064999999997E5
1185 1185 6.759002999999999E5
1185 1186 -3.3719964999999997E5
1186 1185 -3.3870064999999997E5
1186 1186 6.759002999999999E5
1186 1187 -3.3719964999999997E5
1187 1186 -3.3870064999999997E5
1187 1187 6.759002999999999E5
1187 1188 -3.3719964999999997E5
1188 1187 -3.3870064999999997E5
1188 1188 6.759002999999999E5
1188 1189 -3.3719964999999997E5
1189 1188 -3.3870064999999997E5
1189 1189 6.759002999999999E5
1189 1190 -3.3719964999999997E5
1190 1189 -3.3870064999999997E5
1190 1190 6.759002999999999E5
1190 1191 -3.3719964999999997E5
1191 1190 -3.3870064999999997E5
1191 1191 6.759002999999999E5
1191 1192 -3.3719964999999997E5
1192 1191 -3.3870064999999997E5
1192 1192 6.759002999999999E5
1192 1193 -3.3719964999999997E5
1193 1192 -3.3870064999999997E5
1193 1193 6.759002999999999E5
1193 1194 -3.3719964999999997E5
1194 1193 -3.3870064999999997E5
1194 1194 6.759002999999999E5
1194 1195 -3.3719964999999997E5
1195 1194 -3.3870064999999997E5
1195 1195 6.759002999999999E5
1195 1196 -3.3719964999999997E5
1196 1195 -3.3870064999999997E5
1196 1196 6.759002999999999E5
1196 1197 -3.3719964999999997E5
1197 1196 -3.3870064999999997E5
1197 1197 6.759002999999999E5
1197 1198 -3.3719964999999997E5
1198 1197 -3.3870064999999997E5
1198 1198 6.759002999999999E5
1198 1199 -3.3719964999999997E5
1199 1198 -3.3870064999999997E5
1199 1199 6.759002999999999E5
1199 1200 -3.3719964999999997E5
1200 1199 -3.3870064999999997E5
1200 1200 6.759002999999999E5
1200 1201 -3.3719964999999997E5
1201 1200 -3.3870064999999997E5
1201 1201 6.759002999999999E5
1201 1202 -3.3719964999999997E5
1202 1201 -3.3870064999999997E5
1202 1202 6.759002999999999E5
1202 1203 -3.3719964999999997E5
1203 1202 -3.3870064999999997E5
1203 1203 6.759002999999999E5
1203 1204 -3.3719964999999997E5
1204 1203 -3.3870064999999997E5
1204 1204 6.759002999999999E5
1204 1205 -3.3719964999999997E5
1205 1204 -3.3870064999999997E5
1205 1205 6.759002999999999E5
1205 1206 -3.3719964999999997E5
1206 1205 -3.3870064999999997E5
1206 1206 6.759002999999999E5
1206 1207 -3.3719964999999997E5
1207 1206 -3.3870064999999997E5
1207 1207 6.759002999999999E5
1207 1208 -3.3719964999999997E5
1208 1207 -3.3870064999999997E5
1208 1208 6.759002999999999E5
1208 1209 -3.3719964999999997E5
1209 1208 -3.3870064999999997E5
1209 1209 6.759002999999999E5
1209 1210 -3.3719964999999997E5
1210 1209 -3.3870064999999997E5
1210 1210 6.759002999999999E5
1210 1211 -3.3719964999999997E5
1211 1210 -3.3870064999999997E5
1211 1211 6.759002999999999E5
1211 1212 -3.3719964999999997E5
1212 1211 -3.3870064999999997E5
1212 1212 6.759002999999999E5
1212 1213 -3.3719964999999997E5
1213 1212 -3.3870064999999997E5
1213 1213 6.759002999999999E5
1213 1214 -3.3719964999999997E5
1214 1213 -3.3870064999999997E5
1214 1214 6.759002999999999E5
1214 1215 -3.3719964999999997E5
1215 1214 -3.3870064999999997E5
1215 1215 6.759002999999999E5
1215 1216 -3.3719964999999997E5
1216 1215 -3.3870064999999997E5
1216 1216 6.759002999999999E5
1216 1217 -3.3719964999999997E5
1217 1216 -3.3870064999999997E5
1217 1217 6.759002999999999E5
1217 1218 -3.3719964999999997E5
1218 1217 -3.3870064999999997E5
1218 1218 6.759002999999999E5
1218 1219 -3.3719964999999997E5
1219 1218 -3.3870064999999997E5
1219 1219 6.759002999999999E5
1219 1220 -3.3719964999999997E5
1220 1219 -3.3870064999999997E5
1220 1220 6.759002999999999E5
1220 1221 -3.3719964999999997E5
1221 1220 -3.3870064999999997E5
1221 1221 6.759002999999999E5
1221 1222 -3.3719964999999997E5
1222 1221 -3.3870064999999997E5
1222 1222 6.759002999999999E5
1222 1223 -3.3719964999999997E5
1223 1222 -3.3870064999999997E5
1223 1223 6.759002999999999E5
1223 1224 -3.3719964999999997E5
1224 1223 -3.3870064999999997E5
1224 1224 6.759002999999999E5
1224 1225 -3.3719964999999997E5
1225 1224 -3.3870064999999997E5
1225 1225 6.759002999999999E5
1225 1226 -3.3719964999999997E5
1226 1225 -3.3870064999999997E5
1226 1226 6.759002999999999E5
1226 1227 -3.3719964999999997E5
1227 1226 -3.3870064999999997E5
1227 1227 6.759002999999999E5
1227 1228 -3.3719964999999997E5
1228 1227 -3.3870064999999997E5
1228 1228 6.759002999999999E5
1228 1229 -3.3719964999999997E5
1229 1228 -3.3870064999999997E5
1229 1229 6.759002999999999E5
1229 1230 -3.3719964999999997E5
1230 1229 -3.3870064999999997E5
1230 1230 6.759002999999999E5
1230 1231 -3.3719964999999997E5
1231 1230 -3.3870064999999997E5
1231 1231 6.759002999999999E5
1231 1232 -3.3719964999999997E5
1232 1231 -3.3870064999999997E5
1232 1232 6.759002999999999E5
1232 1233 -3.3719964999999997E5
1233 1232 -3.3870064999999997E5
1233 1233 6.759002999999999E5
1233 1234 -3.3719964999999997E5
1234 1233 -3.3870064999999997E5
1234 1234 6.759002999999999E5
1234 1235 -3.3719964999999997E5
1235 1234 -3.3870064999999997E5
1235 1235 6.759002999999999E5
1235 1236 -3.3719964999999997E5
1236 1235 -3.3870064999999997E5
1236 1236 6.759002999999999E5
1236 1237 -3.3719964999999997E5
1237 1236 -3.3870064999999997E5
1237 1237 6.759002999999999E5
1237 1238 -3.3719964999999997E5
1238 1237 -3.3870064999999997E5
1238 1238 6.759002999999999E5
1238 1239 -3.3719964999999997E5
1239 1238 -3.3870064999999997E5
1239 1239 6.759002999999999E5
1239 1240 -3.3719964999999997E5
1240 1239 -3.3870064999999997E5
1240 1240 6.759002999999999E5
1240 1241 -3.3719964999999997E5
1241 1240 -3.3870064999999997E5
1241 1241 6.759002999999999E5
1241 1242 -3.3719964999999997E5
1242 1241 -3.3870064999999997E5
1242 1242 6.759002999999999E5
1242 1243 -3.3719964999999997E5
1243 1242 -3.3870064999999997E5
1243 1243 6.759002999999999E5
1243 1244 -3.3719964999999997E5
1244 1243 -3.3870064999999997E5
1244 1244 6.759002999999999E5
1244 1245 -3.3719964999999997E5
1245 1244 -3.3870064999999997E5
1245 1245 6.759002999999999E5
1245 1246 -3.3719964999999997E5
1246 1245 -3.3870064999999997E5
1246 1246 6.759002999999999E5
1246 1247 -3.3719964999999997E5
1247 1246 -3.3870064999999997E5
1247 1247 6.759002999999999E5
1247 1248 -3.3719964999999997E5
1248 1247 -3.3870064999999997E5
1248 1248 6.759002999999999E5
1248 1249 -3.3719964999999997E5
1249 1248 -3.3870064999999997E5
1249 1249 6.759002999999999E5
1249 1250 -3.3719964999999997E5
1250 1249 -3.3870064999999997E5
1250 1250 6.759002999999999E5
1250 1251 -3.3719964999999997E5
1251 1250 -3.3870064999999997E5
1251 1251 6.759002999999999E5
1251 1252 -3.3719964999999997E5
1252 1251 -3.3870064999999997E5
1252 1252 6.759002999999999E5
1252 1253 -3.3719964999999997E5
1253 1252 -3.3870064999999997E5
1253 1253 6.759002999999999E5
1253 1254 -3.3719964999999997E5
1254 1253 -3.3870064999999997E5
1254 1254 6.759002999999999E5
1254 1255 -3.3719964999999997E5
1255 1254 -3.3870064999999997E5
1255 1255 6.759002999999999E5
1255 1256 -3.3719964999999997E5
1256 1255 -3.3870064999999997E5
1256 1256 6.759002999999999E5
1256 1257 -3.3719964999999997E5
1257 1256 -3.3870064999999997E5
1257 1257 6.759002999999999E5
1257 1258 -3.3719964999999997E5
1258 1257 -3.3870064999999997E5
1258 1258 6.759002999999999E5
1258 1259 -3.3719964999999997E5
1259 1258 -3.3870064999999997E5
1259 1259 6.759002999999999E5
1259 1260 -3.3719964999999997E5
1260 1259 -3.3870064999999997E5
1260 1260 6.759002999999999E5
1260 1261 -3.3719964999999997E5
1261 1260 -3.3870064999999997E5
1261 1261 6.759002999999999E5
1261 1262 -3.3719964999999997E5
1262 1261 -3.3870064999999997E5
1262 1262 6.759002999999999E5
1262 1263 -3.3719964999999997E5
1263 1262 -3.3870064999999997E5
1263 1263 6.759002999999999E5
1263 1264 -3.3719964999999997E5
1264 1263 -3.3870064999999997E5
1264 1264 6.759002999999999E5
1264 1265 -3.3719964999999997E5
1265 1264 -3.3870064999999997E5
1265 1265 6.759002999999999E5
1265 1266 -3.3719964999999997E5
1266 1265 -3.3870064999999997E5
1266 1266 6.759002999999999E5
1266 1267 -3.3719964999999997E5
1267 1266 -3.3870064999999997E5
1267 1267 6.759002999999999E5
1267 1268 -3.3719964999999997E5
1268 1267 -3.3870064999999997E5
1268 1268 6.759002999999999E5
1268 1269 -3.3719964999999997E5
1269 1268 -3.3870064999999997E5
1269 1269 6.759002999999999E5
1269 1270 -3.3719964999999997E5
1270 1269 -3.3870064999999997E5
1270 1270 6.759002999999999E5
1270 1271 -3.3719964999999997E5
1271 1270 -3.3870064999999997E5
1271 1271 6.759002999999999E5
1271 1272 -3.3719964999999997E5
1272 1271 -3.3870064999999997E5
1272 1272 6.759002999999999E5
1272 1273 -3.3719964999999997E5
1273 1272 -3.3870064999999997E5
1273 1273 6.759002999999999E5
1273 1274 -3.3719964999999997E5
1274 1273 -3.3870064999999997E5
1274 1274 6.759002999999999E5
1274 1275 -3.3719964999999997E5
1275 1274 -3.3870064999999997E5
1275 1275 6.759002999999999E5
1275 1276 -3.3719964999999997E5
1276 1275 -3.3870064999999997E5
1276 1276 6.759002999999999E5
1276 1277 -3.3719964999999997E5
1277 1276 -3.3870064999999997E5
1277 1277 6.759002999999999E5
1277 1278 -3.3719964999999997E5
1278 1277 -3.3870064999999997E5
1278 1278 6.759002999999999E5
1278 1279 -3.3719964999999997E5
1279 1278 -3.3870064999999997E5
1279 1279 6.759002999999999E5
1279 1280 -3.3719964999999997E5
1280 1279 -3.3870064999999997E5
1280 1280 6.759002999999999E5
1280 1281 -3.3719964999999997E5
1281 1280 -3.3870064999999997E5
1281 1281 6.759002999999999E5
1281 1282 -3.3719964999999997E5
1282 1281 -3.3870064999999997E5
1282 1282 6.759002999999999E5
1282 1283 -3.3719964999999997E5
1283 1282 -3.3870064999999997E5
1283 1283 6.759002999999999E5
1283 1284 -3.3719964999999997E5
1284 1283 -3.3870064999999997E5
1284 1284 6.759002999999999E5
1284 1285 -3.3719964999999997E5
1285 1284 -3.3870064999999997E5
1285 1285 6.759002999999999E5
1285 1286 -3.3719964999999997E5
1286 1285 -3.3870064999999997E5
1286 1286 6.759002999999999E5
1286 1287 -3.3719964999999997E5
1287 1286 -3.3870064999999997E5
1287 1287 6.759002999999999E5
1287 1288 -3.3719964999999997E5
1288 1287 -3.3870064999999997E5
1288 1288 6.759002999999999E5
1288 1289 -3.3719964999999997E5
1289 1288 -3.3870064999999997E5
1289 1289 6.759002999999999E5
1289 1290 -3.3719964999999997E5
1290 1289 -3.3870064999999997E5
1290 1290 6.759002999999999E5
1290 1291 -3.3719964999999997E5
1291 1290 -3.3870064999999997E5
1291 1291 6.759002999999999E5
1291 1292 -3.3719964999999997E5
1292 1291 -3.3870064999999997E5
1292 1292 6.759002999999999E5
1292 1293 -3.3719964999999997E5
1293 1292 -3.3870064999999997E5
1293 1293 6.759002999999999E5
1293 1294 -3.3719964999999997E5
1294 1293 -3.3870064999999997E5
1294 1294 6.759002999999999E5
1294 1295 -3.3719964999999997E5
1295 1294 -3.3870064999999997E5
1295 1295 6.759002999999999E5
1295 1296 -3.3719964999999997E5
1296 1295 -3.3870064999999997E5
1296 1296 6.759002999999999E5
1296 1297 -3.3719964999999997E5
1297 1296 -3.3870064999999997E5
1297 1297 6.759002999999999E5
1297 1298 -3.3719964999999997E5
1298 1297 -3.3870064999999997E5
1298 1298 6.759002999999999E5
1298 1299 -3.3719964999999997E5
1299 1298 -3.3870064999999997E5
1299 1299 6.759002999999999E5
1299 1300 -3.3719964999999997E5
1300 1299 -3.3870064999999997E5
1300 1300 6.759002999999999E5
1300 1301 -3.3719964999999997E5
1301 1300 -3.3870064999999997E5
1301 1301 6.759002999999999E5
1301 1302 -3.3719964999999997E5
1302 1301 -3.3870064999999997E5
1302 1302 6.759002999999999E5
1302 1303 -3.3719964999999997E5
1303 1302 -3.3870064999999997E5
1303 1303 6.759002999999999E5
1303 1304 -3.3719964999999997E5
1304 1303 -3.3870064999999997E5
1304 1304 6.759002999999999E5
1304 1305 -3.3719964999999997E5
1305 1304 -3.3870064999999997E5
1305 1305 6.759002999999999E5
1305 1306 -3.3719964999999997E5
1306 1305 -3.3870064999999997E5
1306 1306 6.759002999999999E5
1306 1307 -3.3719964999999997E5
1307 1306 -3.3870064999999997E5
1307 1307 6.759002999999999E5
1307 1308 -3.3719964999999997E5
1308 1307 -3.3870064999999997E5
1308 1308 6.759002999999999E5
1308 1309 -3.3719964999999997E5
1309 1308 -3.3870064999999997E5
1309 1309 6.759002999999999E5
1309 1310 -3.3719964999999997E5
1310 1309 -3.3870064999999997E5
1310 1310 6.759002999999999E5
1310 1311 -3.3719964999999997E5
1311 1310 -3.3870064999999997E5
1311 1311 6.759002999999999E5
1311 1312 -3.3719964999999997E5
1312 1311 -3.3870064999999997E5
1312 1312 6.759002999999999E5
1312 1313 -3.3719964999999997E5
1313 1312 -3.3870064999999997E5
1313 1313 6.759002999999999E5
1313 1314 -3.3719964999999997E5
1314 1313 -3.3870064999999997E5
1314 1314 6.759002999999999E5
1314 1315 -3.3719964999999997E5
1315 1314 -3.3870064999999997E5
1315 1315 6.759002999999999E5
1315 1316 -3.3719964999999997E5
1316 1315 -3.3870064999999997E5
1316 1316 6.759002999999999E5
1316 1317 -3.3719964999999997E5
1317 1316 -3.3870064999999997E5
1317 1317 6.759002999999999E5
1317 1318 -3.3719964999999997E5
1318 1317 -3.3870064999999997E5
1318 1318 6.759002999999999E5
1318 1319 -3.3719964999999997E5
1319 1318 -3.3870064999999997E5
1319 1319 6.759002999999999E5
1319 1320 -3.3719964999999997E5
1320 1319 -3.3870064999999997E5
1320 1320 6.759002999999999E5
1320 1321 -3.3719964999999997E5
1321 1320 -3.3870064999999997E5
1321 1321 6.759002999999999E5
1321 1322 -3.3719964999999997E5
1322 1321 -3.3870064999999997E5
1322 1322 6.759002999999999E5
1322 1323 -3.3719964999999997E5
1323 1322 -3.3870064999999997E5
1323 1323 6.759002999999999E5
1323 1324 -3.3719964999999997E5
1324 1323 -3.3870064999999997E5
1324 1324 6.759002999999999E5
1324 1325 -3.3719964999999997E5
1325 1324 -3.3870064999999997E5
1325 1325 6.759002999999999E5
1325 1326 -3.3719964999999997E5
1326 1325 -3.3870064999999997E5
1326 1326 6.759002999999999E5
1326 1327 -3.3719964999999997E5
1327 1326 -3.3870064999999997E5
1327 1327 6.759002999999999E5
1327 1328 -3.3719964999999997E5
1328 1327 -3.3870064999999997E5
1328 1328 6.759002999999999E5
1328 1329 -3.3719964999999997E5
1329 1328 -3.3870064999999997E5
1329 1329 6.759002999999999E5
1329 1330 -3.3719964999999997E5
1330 1329 -3.3870064999999997E5
1330 1330 6.759002999999999E5
1330 1331 -3.3719964999999997E5
1331 1330 -3.3870064999999997E5
1331 1331 6.759002999999999E5
1331 1332 -3.3719964999999997E5
1332 1331 -3.3870064999999997E5
1332 1332 6.759002999999999E5
1332 1333 -3.3719964999999997E5
1333 1332 -3.3870064999999997E5
1333 1333 6.759002999999999E5
1333 1334 -3.3719964999999997E5
1334 1333 -3.3870064999999997E5
1334 1334 6.759002999999999E5
1334 1335 -3.3719964999999997E5
1335 1334 -3.3870064999999997E5
1335 1335 6.759002999999999E5
1335 1336 -3.3719964999999997E5
1336 1335 -3.3870064999999997E5
1336 1336 6.759002999999999E5
1336 1337 -3.3719964999999997E5
1337 1336 -3.3870064999999997E5
1337 1337 6.759002999999999E5
1337 1338 -3.3719964999999997E5
1338 1337 -3.3870064999999997E5
1338 1338 6.759002999999999E5
1338 1339 -3.3719964999999997E5
1339 1338 -3.3870064999999997E5
1339 1339 6.759002999999999E5
1339 1340 -3.3719964999999997E5
1340 1339 -3.3870064999999997E5
1340 1340 6.759002999999999E5
1340 1341 -3.3719964999999997E5
1341 1340 -3.3870064999999997E5
1341 1341 6.759002999999999E5
1341 1342 -3.3719964999999997E5
1342 1341 -3.3870064999999997E5
1342 1342 6.759002999999999E5
1342 1343 -3.3719964999999997E5
1343 1342 -3.3870064999999997E5
1343 1343 6.759002999999999E5
1343 1344 -3.3719964999999997E5
1344 1343 -3.3870064999999997E5
1344 1344 6.759002999999999E5
1344 1345 -3.3719964999999997E5
1345 1344 -3.3870064999999997E5
1345 1345 6.759002999999999E5
1345 1346 -3.3719964999999997E5
1346 1345 -3.3870064999999997E5
1346 1346 6.759002999999999E5
1346 1347 -3.3719964999999997E5
1347 1346 -3.3870064999999997E5
1347 1347 6.759002999999999E5
1347 1348 -3.3719964999999997E5
1348 1347 -3.3870064999999997E5
1348 1348 6.759002999999999E5
1348 1349 -3.3719964999999997E5
1349 1348 -3.3870064999999997E5
1349 1349 6.759002999999999E5
1349 1350 -3.3719964999999997E5
1350 1349 -3.3870064999999997E5
1350 1350 6.759002999999999E5
1350 1351 -3.3719964999999997E5
1351 1350 -3.3870064999999997E5
1351 1351 6.759002999999999E5
1351 1352 -3.3719964999999997E5
1352 1351 -3.3870064999999997E5
1352 1352 6.759002999999999E5
1352 1353 -3.3719964999999997E5
1353 1352 -3.3870064999999997E5
1353 1353 6.759002999999999E5
1353 1354 -3.3719964999999997E5
1354 1353 -3.3870064999999997E5
1354 1354 6.759002999999999E5
1354 1355 -3.3719964999999997E5
1355 1354 -3.3870064999999997E5
1355 1355 6.759002999999999E5
1355 1356 -3.3719964999999997E5
1356 1355 -3.3870064999999997E5
1356 1356 6.759002999999999E5
1356 1357 -3.3719964999999997E5
1357 1356 -3.3870064999999997E5
1357 1357 6.759002999999999E5
1357 1358 -3.3719964999999997E5
1358 1357 -3.3870064999999997E5
1358 1358 6.759002999999999E5
1358 1359 -3.3719964999999997E5
1359 1358 -3.3870064999999997E5
1359 1359 6.759002999999999E5
1359 1360 -3.3719964999999997E5
1360 1359 -3.3870064999999997E5
1360 1360 6.759002999999999E5
1360 1361 -3.3719964999999997E5
1361 1360 -3.3870064999999997E5
1361 1361 6.759002999999999E5
1361 1362 -3.3719964999999997E5
1362 1361 -3.3870064999999997E5
1362 1362 6.759002999999999E5
1362 1363 -3.3719964999999997E5
1363 1362 -3.3870064999999997E5
1363 1363 6.759002999999999E5
1363 1364 -3.3719964999999997E5
1364 1363 -3.3870064999999997E5
1364 1364 6.759002999999999E5
1364 1365 -3.3719964999999997E5
1365 1364 -3.3870064999999997E5
1365 1365 6.759002999999999E5
1365 1366 -3.3719964999999997E5
1366 1365 -3.3870064999999997E5
1366 1366 6.759002999999999E5
1366 1367 -3.3719964999999997E5
1367 1366 -3.3870064999999997E5
1367 1367 6.759002999999999E5
1367 1368 -3.3719964999999997E5
1368 1367 -3.3870064999999997E5
1368 1368 6.759002999999999E5
1368 1369 -3.3719964999999997E5
1369 1368 -3.3870064999999997E5
1369 1369 6.759002999999999E5
1369 1370 -3.3719964999999997E5
1370 1369 -3.3870064999999997E5
1370 1370 6.759002999999999E5
1370 1371 -3.3719964999999997E5
1371 1370 -3.3870064999999997E5
1371 1371 6.759002999999999E5
1371 1372 -3.3719964999999997E5
1372 1371 -3.3870064999999997E5
1372 1372 6.759002999999999E5
1372 1373 -3.3719964999999997E5
1373 1372 -3.3870064999999997E5
1373 1373 6.759002999999999E5
1373 1374 -3.3719964999999997E5
1374 1373 -3.3870064999999997E5
1374 1374 6.759002999999999E5
1374 1375 -3.3719964999999997E5
1375 1374 -3.3870064999999997E5
1375 1375 6.759002999999999E5
1375 1376 -3.3719964999999997E5
1376 1375 -3.3870064999999997E5
1376 1376 6.759002999999999E5
1376 1377 -3.3719964999999997E5
1377 1376 -3.3870064999999997E5
1377 1377 6.759002999999999E5
1377 1378 -3.3719964999999997E5
1378 1377 -3.3870064999999997E5
1378 1378 6.759002999999999E5
1378 1379 -3.3719964999999997E5
1379 1378 -3.3870064999999997E5
1379 1379 6.759002999999999E5
1379 1380 -3.3719964999999997E5
1380 1379 -3.3870064999999997E5
1380 1380 6.759002999999999E5
1380 1381 -3.3719964999999997E5
1381 1380 -3.3870064999999997E5
1381 1381 6.759002999999999E5
1381 1382 -3.3719964999999997E5
1382 1381 -3.3870064999999997E5
1382 1382 6.759002999999999E5
1382 1383 -3.3719964999999997E5
1383 1382 -3.3870064999999997E5
1383 1383 6.759002999999999E5
1383 1384 -3.3719964999999997E5
1384 1383 -3.3870064999999997E5
1384 1384 6.759002999999999E5
1384 1385 -3.3719964999999997E5
1385 1384 -3.3870064999999997E5
1385 1385 6.759002999999999E5
1385 1386 -3.3719964999999997E5
1386 1385 -3.3870064999999997E5
1386 1386 6.759002999999999E5
1386 1387 -3.3719964999999997E5
1387 1386 -3.3870064999999997E5
1387 1387 6.759002999999999E5
1387 1388 -3.3719964999999997E5
1388 1387 -3.3870064999999997E5
1388 1388 6.759002999999999E5
1388 1389 -3.3719964999999997E5
1389 1388 -3.3870064999999997E5
1389 1389 6.759002999999999E5
1389 1390 -3.3719964999999997E5
1390 1389 -3.3870064999999997E5
1390 1390 6.759002999999999E5
1390 1391 -3.3719964999999997E5
1391 1390 -3.3870064999999997E5
1391 1391 6.759002999999999E5
1391 1392 -3.3719964999999997E5
1392 1391 -3.3870064999999997E5
1392 1392 6.759002999999999E5
1392 1393 -3.3719964999999997E5
1393 1392 -3.3870064999999997E5
1393 1393 6.759002999999999E5
1393 1394 -3.3719964999999997E5
1394 1393 -3.3870064999999997E5
1394 1394 6.759002999999999E5
1394 1395 -3.3719964999999997E5
1395 1394 -3.3870064999999997E5
1395 1395 6.759002999999999E5
1395 1396 -3.3719964999999997E5
1396 1395 -3.3870064999999997E5
1396 1396 6.759002999999999E5
1396 1397 -3.3719964999999997E5
1397 1396 -3.3870064999999997E5
1397 1397 6.759002999999999E5
1397 1398 -3.3719964999999997E5
1398 1397 -3.3870064999999997E5
1398 1398 6.759002999999999E5
1398 1399 -3.3719964999999997E5
1399 1398 -3.3870064999999997E5
1399 1399 6.759002999999999E5
1399 1400 -3.3719964999999997E5
1400 1399 -3.3870064999999997E5
1400 1400 6.759002999999999E5
1400 1401 -3.3719964999999997E5
1401 1400 -3.3870064999999997E5
1401 1401 6.759002999999999E5
1401 1402 -3.3719964999999997E5
1402 1401 -3.3870064999999997E5
1402 1402 6.759002999999999E5
1402 1403 -3.3719964999999997E5
1403 1402 -3.3870064999999997E5
1403 1403 6.759002999999999E5
1403 1404 -3.3719964999999997E5
1404 1403 -3.3870064999999997E5
1404 1404 6.759002999999999E5
1404 1405 -3.3719964999999997E5
1405 1404 -3.3870064999999997E5
1405 1405 6.759002999999999E5
1405 1406 -3.3719964999999997E5
1406 1405 -3.3870064999999997E5
1406 1406 6.759002999999999E5
1406 1407 -3.3719964999999997E5
1407 1406 -3.3870064999999997E5
1407 1407 6.759002999999999E5
1407 1408 -3.3719964999999997E5
1408 1407 -3.3870064999999997E5
1408 1408 6.759002999999999E5
1408 1409 -3.3719964999999997E5
1409 1408 -3.3870064999999997E5
1409 1409 6.759002999999999E5
1409 1410 -3.3719964999999997E5
1410 1409 -3.3870064999999997E5
1410 1410 6.759002999999999E5
1410 1411 -3.3719964999999997E5
1411 1410 -3.3870064999999997E5
1411 1411 6.759002999999999E5
1411 1412 -3.3719964999999997E5
1412 1411 -3.3870064999999997E5
1412 1412 6.759002999999999E5
1412 1413 -3.3719964999999997E5
1413 1412 -3.3870064999999997E5
1413 1413 6.759002999999999E5
1413 1414 -3.3719964999999997E5
1414 1413 -3.3870064999999997E5
1414 1414 6.759002999999999E5
1414 1415 -3.3719964999999997E5
1415 1414 -3.3870064999999997E5
1415 1415 6.759002999999999E5
1415 1416 -3.3719964999999997E5
1416 1415 -3.3870064999999997E5
1416 1416 6.759002999999999E5
1416 1417 -3.3719964999999997E5
1417 1416 -3.3870064999999997E5
1417 1417 6.759002999999999E5
1417 1418 -3.3719964999999997E5
1418 1417 -3.3870064999999997E5
1418 1418 6.759002999999999E5
1418 1419 -3.3719964999999997E5
1419 1418 -3.3870064999999997E5
1419 1419 6.759002999999999E5
1419 1420 -3.3719964999999997E5
1420 1419 -3.3870064999999997E5
1420 1420 6.759002999999999E5
1420 1421 -3.3719964999999997E5
1421 1420 -3.3870064999999997E5
1421 1421 6.759002999999999E5
1421 1422 -3.3719964999999997E5
1422 1421 -3.3870064999999997E5
1422 1422 6.759002999999999E5
1422 1423 -3.3719964999999997E5
1423 1422 -3.3870064999999997E5
1423 1423 6.759002999999999E5
1423 1424 -3.3719964999999997E5
1424 1423 -3.3870064999999997E5
1424 1424 6.759002999999999E5
1424 1425 -3.3719964999999997E5
1425 1424 -3.3870064999999997E5
1425 1425 6.759002999999999E5
1425 1426 -3.3719964999999997E5
1426 1425 -3.3870064999999997E5
1426 1426 6.759002999999999E5
1426 1427 -3.3719964999999997E5
1427 1426 -3.3870064999999997E5
1427 1427 6.759002999999999E5
1427 1428 -3.3719964999999997E5
1428 1427 -3.3870064999999997E5
1428 1428 6.759002999999999E5
1428 1429 -3.3719964999999997E5
1429 1428 -3.3870064999999997E5
1429 1429 6.759002999999999E5
1429 1430 -3.3719964999999997E5
1430 1429 -3.3870064999999997E5
1430 1430 6.759002999999999E5
1430 1431 -3.3719964999999997E5
1431 1430 -3.3870064999999997E5
1431 1431 6.759002999999999E5
1431 1432 -3.3719964999999997E5
1432 1431 -3.3870064999999997E5
1432 1432 6.759002999999999E5
1432 1433 -3.3719964999999997E5
1433 1432 -3.3870064999999997E5
1433 1433 6.759002999999999E5
1433 1434 -3.3719964999999997E5
1434 1433 -3.3870064999999997E5
1434 1434 6.759002999999999E5
1434 1435 -3.3719964999999997E5
1435 1434 -3.3870064999999997E5
1435 1435 6.759002999999999E5
1435 1436 -3.3719964999999997E5
1436 1435 -3.3870064999999997E5
1436 1436 6.759002999999999E5
1436 1437 -3.3719964999999997E5
1437 1436 -3.3870064999999997E5
1437 1437 6.759002999999999E5
1437 1438 -3.3719964999999997E5
1438 1437 -3.3870064999999997E5
1438 1438 6.759002999999999E5
1438 1439 -3.3719964999999997E5
1439 1438 -3.3870064999999997E5
1439 1439 6.759002999999999E5
1439 1440 -3.3719964999999997E5
1440 1439 -3.3870064999999997E5
1440 1440 6.759002999999999E5
1440 1441 -3.3719964999999997E5
1441 1440 -3.3870064999999997E5
1441 1441 6.759002999999999E5
1441 1442 -3.3719964999999997E5
1442 1441 -3.3870064999999997E5
1442 1442 6.759002999999999E5
1442 1443 -3.3719964999999997E5
1443 1442 -3.3870064999999997E5
1443 1443 6.759002999999999E5
1443 1444 -3.3719964999999997E5
1444 1443 -3.3870064999999997E5
1444 1444 6.759002999999999E5
1444 1445 -3.3719964999999997E5
1445 1444 -3.3870064999999997E5
1445 1445 6.759002999999999E5
1445 1446 -3.3719964999999997E5
1446 1445 -3.3870064999999997E5
1446 1446 6.759002999999999E5
1446 1447 -3.3719964999999997E5
1447 1446 -3.3870064999999997E5
1447 1447 6.759002999999999E5
1447 1448 -3.3719964999999997E5
1448 1447 -3.3870064999999997E5
1448 1448 6.759002999999999E5
1448 1449 -3.3719964999999997E5
1449 1448 -3.3870064999999997E5
1449 1449 6.759002999999999E5
1449 1450 -3.3719964999999997E5
1450 1449 -3.3870064999999997E5
1450 1450 6.759002999999999E5
1450 1451 -3.3719964999999997E5
1451 1450 -3.3870064999999997E5
1451 1451 6.759002999999999E5
1451 1452 -3.3719964999999997E5
1452 1451 -3.3870064999999997E5
1452 1452 6.759002999999999E5
1452 1453 -3.3719964999999997E5
1453 1452 -3.3870064999999997E5
1453 1453 6.759002999999999E5
1453 1454 -3.3719964999999997E5
1454 1453 -3.3870064999999997E5
1454 1454 6.759002999999999E5
1454 1455 -3.3719964999999997E5
1455 1454 -3.3870064999999997E5
1455 1455 6.759002999999999E5
1455 1456 -3.3719964999999997E5
1456 1455 -3.3870064999999997E5
1456 1456 6.759002999999999E5
1456 1457 -3.3719964999999997E5
1457 1456 -3.3870064999999997E5
1457 1457 6.759002999999999E5
1457 1458 -3.3719964999999997E5
1458 1457 -3.3870064999999997E5
1458 1458 6.759002999999999E5
1458 1459 -3.3719964999999997E5
1459 1458 -3.3870064999999997E5
1459 1459 6.759002999999999E5
1459 1460 -3.3719964999999997E5
1460 1459 -3.3870064999999997E5
1460 1460 6.759002999999999E5
1460 1461 -3.3719964999999997E5
1461 1460 -3.3870064999999997E5
1461 1461 6.759002999999999E5
1461 1462 -3.3719964999999997E5
1462 1461 -3.3870064999999997E5
1462 1462 6.759002999999999E5
1462 1463 -3.3719964999999997E5
1463 1462 -3.3870064999999997E5
1463 1463 6.759002999999999E5
1463 1464 -3.3719964999999997E5
1464 1463 -3.3870064999999997E5
1464 1464 6.759002999999999E5
1464 1465 -3.3719964999999997E5
1465 1464 -3.3870064999999997E5
1465 1465 6.759002999999999E5
1465 1466 -3.3719964999999997E5
1466 1465 -3.3870064999999997E5
1466 1466 6.759002999999999E5
1466 1467 -3.3719964999999997E5
1467 1466 -3.3870064999999997E5
1467 1467 6.759002999999999E5
1467 1468 -3.3719964999999997E5
1468 1467 -3.3870064999999997E5
1468 1468 6.759002999999999E5
1468 1469 -3.3719964999999997E5
1469 1468 -3.3870064999999997E5
1469 1469 6.759002999999999E5
1469 1470 -3.3719964999999997E5
1470 1469 -3.3870064999999997E5
1470 1470 6.759002999999999E5
1470 1471 -3.3719964999999997E5
1471 1470 -3.3870064999999997E5
1471 1471 6.759002999999999E5
1471 1472 -3.3719964999999997E5
1472 1471 -3.3870064999999997E5
1472 1472 6.759002999999999E5
1472 1473 -3.3719964999999997E5
1473 1472 -3.3870064999999997E5
1473 1473 6.759002999999999E5
1473 1474 -3.3719964999999997E5
1474 1473 -3.3870064999999997E5
1474 1474 6.759002999999999E5
1474 1475 -3.3719964999999997E5
1475 1474 -3.3870064999999997E5
1475 1475 6.759002999999999E5
1475 1476 -3.3719964999999997E5
1476 1475 -3.3870064999999997E5
1476 1476 6.759002999999999E5
1476 1477 -3.3719964999999997E5
1477 1476 -3.3870064999999997E5
1477 1477 6.759002999999999E5
1477 1478 -3.3719964999999997E5
1478 1477 -3.3870064999999997E5
1478 1478 6.759002999999999E5
1478 1479 -3.3719964999999997E5
1479 1478 -3.3870064999999997E5
1479 1479 6.759002999999999E5
1479 1480 -3.3719964999999997E5
1480 1479 -3.3870064999999997E5
1480 1480 6.759002999999999E5
1480 1481 -3.3719964999999997E5
1481 1480 -3.3870064999999997E5
1481 1481 6.759002999999999E5
1481 1482 -3.3719964999999997E5
1482 1481 -3.3870064999999997E5
1482 1482 6.759002999999999E5
1482 1483 -3.3719964999999997E5
1483 1482 -3.3870064999999997E5
1483 1483 6.759002999999999E5
1483 1484 -3.3719964999999997E5
1484 1483 -3.3870064999999997E5
1484 1484 6.759002999999999E5
1484 1485 -3.3719964999999997E5
1485 1484 -3.3870064999999997E5
1485 1485 6.759002999999999E5
1485 1486 -3.3719964999999997E5
1486 1485 -3.3870064999999997E5
1486 1486 6.759002999999999E5
1486 1487 -3.3719964999999997E5
1487 1486 -3.3870064999999997E5
1487 1487 6.759002999999999E5
1487 1488 -3.3719964999999997E5
1488 1487 -3.3870064999999997E5
1488 1488 6.759002999999999E5
1488 1489 -3.3719964999999997E5
1489 1488 -3.3870064999999997E5
1489 1489 6.759002999999999E5
1489 1490 -3.3719964999999997E5
1490 1489 -3.3870064999999997E5
1490 1490 6.759002999999999E5
1490 1491 -3.3719964999999997E5
1491 1490 -3.3870064999999997E5
1491 1491 6.759002999999999E5
1491 1492 -3.3719964999999997E5
1492 1491 -3.3870064999999997E5
1492 1492 6.759002999999999E5
1492 1493 -3.3719964999999997E5
1493 1492 -3.3870064999999997E5
1493 1493 6.759002999999999E5
1493 1494 -3.3719964999999997E5
1494 1493 -3.3870064999999997E5
1494 1494 6.759002999999999E5
1494 1495 -3.3719964999999997E5
1495 1494 -3.3870064999999997E5
1495 1495 6.759002999999999E5
1495 1496 -3.3719964999999997E5
1496 1495 -3.3870064999999997E5
1496 1496 6.759002999999999E5
1496 1497 -3.3719964999999997E5
1497 1496 -3.3870064999999997E5
1497 1497 6.759002999999999E5
1497 1498 -3.3719964999999997E5
1498 1497 -3.3870064999999997E5
1498 1498 6.759002999999999E5
1498 1499 -3.3719964999999997E5
1499 1498 -3.3870064999999997E5
1499 1499 6.759002999999999E5
1499 1500 -3.3719964999999997E5
1500 1499 -3.3870064999999997E5
1500 1500 6.759002999999999E5
