%%MatrixMarket matrix coordinate real general
% 1D convection-diffusion (-eps*u'' + beta*u' = f), central FD, n=900, eps=0.2, beta=1.0, kappa~=201444
900 900 2698
1 1 3.2472039999999997E5
1 2 -1.6190969999999998E5
2 1 -1.6281069999999998E5
2 2 3.2472039999999997E5
2 3 -1.6190969999999998E5
3 2 -1.6281069999999998E5
3 3 3.2472039999999997E5
3 4 -1.6190969999999998E5
4 3 -1.6281069999999998E5
4 4 3.2472039999999997E5
4 5 -1.6190969999999998E5
5 4 -1.6281069999999998E5
5 5 3.2472039999999997E5
5 6 -1.6190969999999998E5
6 5 -1.6281069999999998E5
6 6 3.2472039999999997E5
6 7 -1.6190969999999998E5
7 6 -1.6281069999999998E5
7 7 3.2472039999999997E5
7 8 -1.6190969999999998E5
8 7 -1.6281069999999998E5
8 8 3.2472039999999997E5
8 9 -1.6190969999999998E5
9 8 -1.6281069999999998E5
9 9 3.2472039999999997E5
9 10 -1.6190969999999998E5
10 9 -1.6281069999999998E5
10 10 3.2472039999999997E5
10 11 -1.6190969999999998E5
11 10 -1.6281069999999998E5
11 11 3.2472039999999997E5
11 12 -1.6190969999999998E5
12 11 -1.6281069999999998E5
12 12 3.2472039999999997E5
12 13 -1.6190969999999998E5
13 12 -1.6281069999999998E5
13 13 3.2472039999999997E5
13 14 -1.6190969999999998E5
14 13 -1.6281069999999998E5
14 14 3.2472039999999997E5
14 15 -1.6190969999999998E5
15 14 -1.6281069999999998E5
15 15 3.2472039999999997E5
15 16 -1.6190969999999998E5
16 15 -1.6281069999999998E5
16 16 3.2472039999999997E5
16 17 -1.6190969999999998E5
17 16 -1.6281069999999998E5
17 17 3.2472039999999997E5
17 18 -1.6190969999999998E5
18 17 -1.6281069999999998E5
18 18 3.2472039999999997E5
18 19 -1.6190969999999998E5
19 18 -1.6281069999999998E5
19 19 3.2472039999999997E5
19 20 -1.6190969999999998E5
20 19 -1.6281069999999998E5
20 20 3.2472039999999997E5
20 21 -1.6190969999999998E5
21 20 -1.6281069999999998E5
21 21 3.2472039999999997E5
21 22 -1.6190969999999998E5
22 21 -1.6281069999999998E5
22 22 3.2472039999999997E5
22 23 -1.6190969999999998E5
23 22 -1.6281069999999998E5
23 23 3.2472039999999997E5
23 24 -1.6190969999999998E5
24 23 -1.6281069999999998E5
24 24 3.2472039999999997E5
24 25 -1.6190969999999998E5
25 24 -1.6281069999999998E5
25 25 3.2472039999999997E5
25 26 -1.6190969999999998E5
26 25 -1.6281069999999998E5
26 26 3.2472039999999997E5
26 27 -1.6190969999999998E5
27 26 -1.6281069999999998E5
27 27 3.2472039999999997E5
27 28 -1.6190969999999998E5
28 27 -1.6281069999999998E5
28 28 3.2472039999999997E5
28 29 -1.6190969999999998E5
29 28 -1.6281069999999998E5
29 29 3.2472039999999997E5
29 30 -1.6190969999999998E5
30 29 -1.6281069999999998E5
30 30 3.2472039999999997E5
30 31 -1.6190969999999998E5
31 30 -1.6281069999999998E5
31 31 3.2472039999999997E5
31 32 -1.6190969999999998E5
32 31 -1.6281069999999998E5
32 32 3.2472039999999997E5
32 33 -1.6190969999999998E5
33 32 -1.6281069999999998E5
33 33 3.2472039999999997E5
33 34 -1.6190969999999998E5
34 33 -1.6281069999999998E5
34 34 3.2472039999999997E5
34 35 -1.6190969999999998E5
35 34 -1.6281069999999998E5
35 35 3.2472039999999997E5
35 36 -1.6190969999999998E5
36 35 -1.6281069999999998E5
36 36 3.2472039999999997E5
36 37 -1.6190969999999998E5
37 36 -1.6281069999999998E5
37 37 3.2472039999999997E5
37 38 -1.6190969999999998E5
38 37 -1.6281069999999998E5
38 38 3.2472039999999997E5
38 39 -1.6190969999999998E5
39 38 -1.6281069999999998E5
39 39 3.2472039999999997E5
39 40 -1.6190969999999998E5
40 39 -1.6281069999999998E5
40 40 3.2472039999999997E5
40 41 -1.6190969999999998E5
41 40 -1.6281069999999998E5
41 41 3.2472039999999997E5
41 42 -1.6190969999999998E5
42 41 -1.6281069999999998E5
42 42 3.2472039999999997E5
42 43 -1.6190969999999998E5
43 42 -1.6281069999999998E5
43 43 3.2472039999999997E5
43 44 -1.6190969999999998E5
44 43 -1.6281069999999998E5
44 44 3.2472039999999997E5
44 45 -1.6190969999999998E5
45 44 -1.6281069999999998E5
45 45 3.2472039999999997E5
45 46 -1.6190969999999998E5
46 45 -1.6281069999999998E5
46 46 3.2472039999999997E5
46 47 -1.6190969999999998E5
47 46 -1.6281069999999998E5
47 47 3.2472039999999997E5
47 48 -1.6190969999999998E5
48 47 -1.6281069999999998E5
48 48 3.2472039999999997E5
48 49 -1.6190969999999998E5
49 48 -1.6281069999999998E5
49 49 3.2472039999999997E5
49 50 -1.6190969999999998E5
50 49 -1.6281069999999998E5
50 50 3.2472039999999997E5
50 51 -1.6190969999999998E5
51 50 -1.6281069999999998E5
51 51 3.2472039999999997E5
51 52 -1.6190969999999998E5
52 51 -1.6281069999999998E5
52 52 3.2472039999999997E5
52 53 -1.6190969999999998E5
53 52 -1.6281069999999998E5
53 53 3.2472039999999997E5
53 54 -1.6190969999999998E5
54 53 -1.6281069999999998E5
54 54 3.2472039999999997E5
54 55 -1.6190969999999998E5
55 54 -1.6281069999999998E5
55 55 3.2472039999999997E5
55 56 -1.6190969999999998E5
56 55 -1.6281069999999998E5
56 56 3.2472039999999997E5
56 57 -1.6190969999999998E5
57 56 -1.6281069999999998E5
57 57 3.2472039999999997E5
57 58 -1.6190969999999998E5
58 57 -1.6281069999999998E5
58 58 3.2472039999999997E5
58 59 -1.6190969999999998E5
59 58 -1.6281069999999998E5
59 59 3.2472039999999997E5
59 60 -1.6190969999999998E5
60 59 -1.6281069999999998E5
60 60 3.2472039999999997E5
60 61 -1.6190969999999998E5
61 60 -1.6281069999999998E5
61 61 3.2472039999999997E5
61 62 -1.6190969999999998E5
62 61 -1.6281069999999998E5
62 62 3.2472039999999997E5
62 63 -1.6190969999999998E5
63 62 -1.6281069999999998E5
63 63 3.2472039999999997E5
63 64 -1.6190969999999998E5
64 63 -1.6281069999999998E5
64 64 3.2472039999999997E5
64 65 -1.6190969999999998E5
65 64 -1.6281069999999998E5
65 65 3.2472039999999997E5
65 66 -1.6190969999999998E5
66 65 -1.6281069999999998E5
66 66 3.2472039999999997E5
66 67 -1.6190969999999998E5
67 66 -1.6281069999999998E5
67 67 3.2472039999999997E5
67 68 -1.6190969999999998E5
68 67 -1.6281069999999998E5
68 68 3.2472039999999997E5
68 69 -1.6190969999999998E5
69 68 -1.6281069999999998E5
69 69 3.2472039999999997E5
69 70 -1.6190969999999998E5
70 69 -1.6281069999999998E5
70 70 3.2472039999999997E5
70 71 -1.6190969999999998E5
71 70 -1.6281069999999998E5
71 71 3.2472039999999997E5
71 72 -1.6190969999999998E5
72 71 -1.6281069999999998E5
72 72 3.2472039999999997E5
72 73 -1.6190969999999998E5
73 72 -1.6281069999999998E5
73 73 3.2472039999999997E5
73 74 -1.6190969999999998E5
74 73 -1.6281069999999998E5
74 74 3.2472039999999997E5
74 75 -1.6190969999999998E5
75 74 -1.6281069999999998E5
75 75 3.2472039999999997E5
75 76 -1.6190969999999998E5
76 75 -1.6281069999999998E5
76 76 3.2472039999999997E5
76 77 -1.6190969999999998E5
77 76 -1.6281069999999998E5
77 77 3.2472039999999997E5
77 78 -1.6190969999999998E5
78 77 -1.6281069999999998E5
78 78 3.2472039999999997E5
78 79 -1.6190969999999998E5
79 78 -1.6281069999999998E5
79 79 3.2472039999999997E5
79 80 -1.6190969999999998E5
80 79 -1.6281069999999998E5
80 80 3.2472039999999997E5
80 81 -1.6190969999999998E5
81 80 -1.6281069999999998E5
81 81 3.2472039999999997E5
81 82 -1.6190969999999998E5
82 81 -1.6281069999999998E5
82 82 3.2472039999999997E5
82 83 -1.6190969999999998E5
83 82 -1.6281069999999998E5
83 83 3.2472039999999997E5
83 84 -1.6190969999999998E5
84 83 -1.6281069999999998E5
84 84 3.2472039999999997E5
84 85 -1.6190969999999998E5
85 84 -1.6281069999999998E5
85 85 3.2472039999999997E5
85 86 -1.6190969999999998E5
86 85 -1.6281069999999998E5
86 86 3.2472039999999997E5
86 87 -1.6190969999999998E5
87 86 -1.6281069999999998E5
87 87 3.2472039999999997E5
87 88 -1.6190969999999998E5
88 87 -1.6281069999999998E5
88 88 3.2472039999999997E5
88 89 -1.6190969999999998E5
89 88 -1.6281069999999998E5
89 89 3.2472039999999997E5
89 90 -1.6190969999999998E5
90 89 -1.6281069999999998E5
90 90 3.2472039999999997E5
90 91 -1.6190969999999998E5
91 90 -1.6281069999999998E5
91 91 3.2472039999999997E5
91 92 -1.6190969999999998E5
92 91 -1.6281069999999998E5
92 92 3.2472039999999997E5
92 93 -1.6190969999999998E5
93 92 -1.6281069999999998E5
93 93 3.2472039999999997E5
93 94 -1.6190969999999998E5
94 93 -1.6281069999999998E5
94 94 3.2472039999999997E5
94 95 -1.6190969999999998E5
95 94 -1.6281069999999998E5
95 95 3.2472039999999997E5
95 96 -1.6190969999999998E5
96 95 -1.6281069999999998E5
96 96 3.2472039999999997E5
96 97 -1.6190969999999998E5
97 96 -1.6281069999999998E5
97 97 3.2472039999999997E5
97 98 -1.6190969999999998E5
98 97 -1.6281069999999998E5
98 98 3.2472039999999997E5
98 99 -1.6190969999999998E5
99 98 -1.6281069999999998E5
99 99 3.2472039999999997E5
99 100 -1.6190969999999998E5
100 99 -1.6281069999999998E5
100 100 3.2472039999999997E5
100 101 -1.6190969999999998E5
101 100 -1.6281069999999998E5
101 101 3.2472039999999997E5
101 102 -1.6190969999999998E5
102 101 -1.6281069999999998E5
102 102 3.2472039999999997E5
102 103 -1.6190969999999998E5
103 102 -1.6281069999999998E5
103 103 3.2472039999999997E5
103 104 -1.6190969999999998E5
104 103 -1.6281069999999998E5
104 104 3.2472039999999997E5
104 105 -1.6190969999999998E5
105 104 -1.6281069999999998E5
105 105 3.2472039999999997E5
105 106 -1.6190969999999998E5
106 105 -1.6281069999999998E5
106 106 3.2472039999999997E5
106 107 -1.6190969999999998E5
107 106 -1.6281069999999998E5
107 107 3.2472039999999997E5
107 108 -1.6190969999999998E5
108 107 -1.6281069999999998E5
108 108 3.2472039999999997E5
108 109 -1.6190969999999998E5
109 108 -1.6281069999999998E5
109 109 3.2472039999999997E5
109 110 -1.6190969999999998E5
110 109 -1.6281069999999998E5
110 110 3.2472039999999997E5
110 111 -1.6190969999999998E5
111 110 -1.6281069999999998E5
111 111 3.2472039999999997E5
111 112 -1.6190969999999998E5
112 111 -1.6281069999999998E5
112 112 3.2472039999999997E5
112 113 -1.6190969999999998E5
113 112 -1.6281069999999998E5
113 113 3.2472039999999997E5
113 114 -1.6190969999999998E5
114 113 -1.6281069999999998E5
114 114 3.2472039999999997E5
114 115 -1.6190969999999998E5
115 114 -1.6281069999999998E5
115 115 3.2472039999999997E5
115 116 -1.6190969999999998E5
116 115 -1.6281069999999998E5
116 116 3.2472039999999997E5
116 117 -1.6190969999999998E5
117 116 -1.6281069999999998E5
117 117 3.2472039999999997E5
117 118 -1.6190969999999998E5
118 117 -1.6281069999999998E5
118 118 3.2472039999999997E5
118 119 -1.6190969999999998E5
119 118 -1.6281069999999998E5
119 119 3.2472039999999997E5
119 120 -1.6190969999999998E5
120 119 -1.6281069999999998E5
120 120 3.2472039999999997E5
120 121 -1.6190969999999998E5
121 120 -1.6281069999999998E5
121 121 3.2472039999999997E5
121 122 -1.6190969999999998E5
122 121 -1.6281069999999998E5
122 122 3.2472039999999997E5
122 123 -1.6190969999999998E5
123 122 -1.6281069999999998E5
123 123 3.2472039999999997E5
123 124 -1.6190969999999998E5
124 123 -1.6281069999999998E5
124 124 3.2472039999999997E5
124 125 -1.6190969999999998E5
125 124 -1.6281069999999998E5
125 125 3.2472039999999997E5
125 126 -1.6190969999999998E5
126 125 -1.6281069999999998E5
126 126 3.2472039999999997E5
126 127 -1.6190969999999998E5
127 126 -1.6281069999999998E5
127 127 3.2472039999999997E5
127 128 -1.6190969999999998E5
128 127 -1.6281069999999998E5
128 128 3.2472039999999997E5
128 129 -1.6190969999999998E5
129 128 -1.6281069999999998E5
129 129 3.2472039999999997E5
129 130 -1.6190969999999998E5
130 129 -1.6281069999999998E5
130 130 3.2472039999999997E5
130 131 -1.6190969999999998E5
131 130 -1.6281069999999998E5
131 131 3.2472039999999997E5
131 132 -1.6190969999999998E5
132 131 -1.6281069999999998E5
132 132 3.2472039999999997E5
132 133 -1.6190969999999998E5
133 132 -1.6281069999999998E5
133 133 3.2472039999999997E5
133 134 -1.6190969999999998E5
134 133 -1.6281069999999998E5
134 134 3.2472039999999997E5
134 135 -1.6190969999999998E5
135 134 -1.6281069999999998E5
135 135 3.2472039999999997E5
135 136 -1.6190969999999998E5
136 135 -1.6281069999999998E5
136 136 3.2472039999999997E5
136 137 -1.6190969999999998E5
137 136 -1.6281069999999998E5
137 137 3.2472039999999997E5
137 138 -1.6190969999999998E5
138 137 -1.6281069999999998E5
138 138 3.2472039999999997E5
138 139 -1.6190969999999998E5
139 138 -1.6281069999999998E5
139 139 3.2472039999999997E5
139 140 -1.6190969999999998E5
140 139 -1.6281069999999998E5
140 140 3.2472039999999997E5
140 141 -1.6190969999999998E5
141 140 -1.6281069999999998E5
141 141 3.2472039999999997E5
141 142 -1.6190969999999998E5
142 141 -1.6281069999999998E5
142 142 3.2472039999999997E5
142 143 -1.6190969999999998E5
143 142 -1.6281069999999998E5
143 143 3.2472039999999997E5
143 144 -1.6190969999999998E5
144 143 -1.6281069999999998E5
144 144 3.2472039999999997E5
144 145 -1.6190969999999998E5
145 144 -1.6281069999999998E5
145 145 3.2472039999999997E5
145 146 -1.6190969999999998E5
146 145 -1.6281069999999998E5
146 146 3.2472039999999997E5
146 147 -1.6190969999999998E5
147 146 -1.6281069999999998E5
147 147 3.2472039999999997E5
147 148 -1.6190969999999998E5
148 147 -1.6281069999999998E5
148 148 3.2472039999999997E5
148 149 -1.6190969999999998E5
149 148 -1.6281069999999998E5
149 149 3.2472039999999997E5
149 150 -1.6190969999999998E5
150 149 -1.6281069999999998E5
150 150 3.2472039999999997E5
150 151 -1.6190969999999998E5
151 150 -1.6281069999999998E5
151 151 3.2472039999999997E5
151 152 -1.6190969999999998E5
152 151 -1.6281069999999998E5
152 152 3.2472039999999997E5
152 153 -1.6190969999999998E5
153 152 -1.6281069999999998E5
153 153 3.2472039999999997E5
153 154 -1.6190969999999998E5
154 153 -1.6281069999999998E5
154 154 3.2472039999999997E5
154 155 -1.6190969999999998E5
155 154 -1.6281069999999998E5
155 155 3.2472039999999997E5
155 156 -1.6190969999999998E5
156 155 -1.6281069999999998E5
156 156 3.2472039999999997E5
156 157 -1.6190969999999998E5
157 156 -1.6281069999999998E5
157 157 3.2472039999999997E5
157 158 -1.6190969999999998E5
158 157 -1.6281069999999998E5
158 158 3.2472039999999997E5
158 159 -1.6190969999999998E5
159 158 -1.6281069999999998E5
159 159 3.2472039999999997E5
159 160 -1.6190969999999998E5
160 159 -1.6281069999999998E5
160 160 3.2472039999999997E5
160 161 -1.6190969999999998E5
161 160 -1.6281069999999998E5
161 161 3.2472039999999997E5
161 162 -1.6190969999999998E5
162 161 -1.6281069999999998E5
162 162 3.2472039999999997E5
162 163 -1.6190969999999998E5
163 162 -1.6281069999999998E5
163 163 3.2472039999999997E5
163 164 -1.6190969999999998E5
164 163 -1.6281069999999998E5
164 164 3.2472039999999997E5
164 165 -1.6190969999999998E5
165 164 -1.6281069999999998E5
165 165 3.2472039999999997E5
165 166 -1.6190969999999998E5
166 165 -1.6281069999999998E5
166 166 3.2472039999999997E5
166 167 -1.6190969999999998E5
167 166 -1.6281069999999998E5
167 167 3.2472039999999997E5
167 168 -1.6190969999999998E5
168 167 -1.6281069999999998E5
168 168 3.2472039999999997E5
168 169 -1.6190969999999998E5
169 168 -1.6281069999999998E5
169 169 3.2472039999999997E5
169 170 -1.6190969999999998E5
170 169 -1.6281069999999998E5
170 170 3.2472039999999997E5
170 171 -1.6190969999999998E5
171 170 -1.6281069999999998E5
171 171 3.2472039999999997E5
171 172 -1.6190969999999998E5
172 171 -1.6281069999999998E5
172 172 3.2472039999999997E5
172 173 -1.6190969999999998E5
173 172 -1.6281069999999998E5
173 173 3.2472039999999997E5
173 174 -1.6190969999999998E5
174 173 -1.6281069999999998E5
174 174 3.2472039999999997E5
174 175 -1.6190969999999998E5
175 174 -1.6281069999999998E5
175 175 3.2472039999999997E5
175 176 -1.6190969999999998E5
176 175 -1.6281069999999998E5
176 176 3.2472039999999997E5
176 177 -1.6190969999999998E5
177 176 -1.6281069999999998E5
177 177 3.2472039999999997E5
177 178 -1.6190969999999998E5
178 177 -1.6281069999999998E5
178 178 3.2472039999999997E5
178 179 -1.6190969999999998E5
179 178 -1.6281069999999998E5
179 179 3.2472039999999997E5
179 180 -1.6190969999999998E5
180 179 -1.6281069999999998E5
180 180 3.2472039999999997E5
180 181 -1.6190969999999998E5
181 180 -1.6281069999999998E5
181 181 3.2472039999999997E5
181 182 -1.6190969999999998E5
182 181 -1.6281069999999998E5
182 182 3.2472039999999997E5
182 183 -1.6190969999999998E5
183 182 -1.6281069999999998E5
183 183 3.2472039999999997E5
183 184 -1.6190969999999998E5
184 183 -1.6281069999999998E5
184 184 3.2472039999999997E5
184 185 -1.6190969999999998E5
185 184 -1.6281069999999998E5
185 185 3.2472039999999997E5
185 186 -1.6190969999999998E5
186 185 -1.6281069999999998E5
186 186 3.2472039999999997E5
186 187 -1.6190969999999998E5
187 186 -1.6281069999999998E5
187 187 3.2472039999999997E5
187 188 -1.6190969999999998E5
188 187 -1.6281069999999998E5
188 188 3.2472039999999997E5
188 189 -1.6190969999999998E5
189 188 -1.6281069999999998E5
189 189 3.2472039999999997E5
189 190 -1.6190969999999998E5
190 189 -1.6281069999999998E5
190 190 3.2472039999999997E5
190 191 -1.6190969999999998E5
191 190 -1.6281069999999998E5
191 191 3.2472039999999997E5
191 192 -1.6190969999999998E5
192 191 -1.6281069999999998E5
192 192 3.2472039999999997E5
192 193 -1.6190969999999998E5
193 192 -1.6281069999999998E5
193 193 3.2472039999999997E5
193 194 -1.6190969999999998E5
194 193 -1.6281069999999998E5
194 194 3.2472039999999997E5
194 195 -1.6190969999999998E5
195 194 -1.6281069999999998E5
195 195 3.2472039999999997E5
195 196 -1.6190969999999998E5
196 195 -1.6281069999999998E5
196 196 3.2472039999999997E5
196 197 -1.6190969999999998E5
197 196 -1.6281069999999998E5
197 197 3.2472039999999997E5
197 198 -1.6190969999999998E5
198 197 -1.6281069999999998E5
198 198 3.2472039999999997E5
198 199 -1.6190969999999998E5
199 198 -1.6281069999999998E5
199 199 3.2472039999999997E5
199 200 -1.6190969999999998E5
200 199 -1.6281069999999998E5
200 200 3.2472039999999997E5
200 201 -1.6190969999999998E5
201 200 -1.6281069999999998E5
201 201 3.2472039999999997E5
201 202 -1.6190969999999998E5
202 201 -1.6281069999999998E5
202 202 3.2472039999999997E5
202 203 -1.6190969999999998E5
203 202 -1.6281069999999998E5
203 203 3.2472039999999997E5
203 204 -1.6190969999999998E5
204 203 -1.6281069999999998E5
204 204 3.2472039999999997E5
204 205 -1.6190969999999998E5
205 204 -1.6281069999999998E5
205 205 3.2472039999999997E5
205 206 -1.6190969999999998E5
206 205 -1.6281069999999998E5
206 206 3.2472039999999997E5
206 207 -1.6190969999999998E5
207 206 -1.6281069999999998E5
207 207 3.2472039999999997E5
207 208 -1.6190969999999998E5
208 207 -1.6281069999999998E5
208 208 3.2472039999999997E5
208 209 -1.6190969999999998E5
209 208 -1.6281069999999998E5
209 209 3.2472039999999997E5
209 210 -1.6190969999999998E5
210 209 -1.6281069999999998E5
210 210 3.2472039999999997E5
210 211 -1.6190969999999998E5
211 210 -1.6281069999999998E5
211 211 3.2472039999999997E5
211 212 -1.6190969999999998E5
212 211 -1.6281069999999998E5
212 212 3.2472039999999997E5
212 213 -1.6190969999999998E5
213 212 -1.6281069999999998E5
213 213 3.2472039999999997E5
213 214 -1.6190969999999998E5
214 213 -1.6281069999999998E5
214 214 3.2472039999999997E5
214 215 -1.6190969999999998E5
215 214 -1.6281069999999998E5
215 215 3.2472039999999997E5
215 216 -1.6190969999999998E5
216 215 -1.6281069999999998E5
216 216 3.2472039999999997E5
216 217 -1.6190969999999998E5
217 216 -1.6281069999999998E5
217 217 3.2472039999999997E5
217 218 -1.6190969999999998E5
218 217 -1.6281069999999998E5
218 218 3.2472039999999997E5
218 219 -1.6190969999999998E5
219 218 -1.6281069999999998E5
219 219 3.2472039999999997E5
219 220 -1.6190969999999998E5
220 219 -1.6281069999999998E5
220 220 3.2472039999999997E5
220 221 -1.6190969999999998E5
221 220 -1.6281069999999998E5
221 221 3.2472039999999997E5
221 222 -1.6190969999999998E5
222 221 -1.6281069999999998E5
222 222 3.2472039999999997E5
222 223 -1.6190969999999998E5
223 222 -1.6281069999999998E5
223 223 3.2472039999999997E5
223 224 -1.6190969999999998E5
224 223 -1.6281069999999998E5
224 224 3.2472039999999997E5
224 225 -1.6190969999999998E5
225 224 -1.6281069999999998E5
225 225 3.2472039999999997E5
225 226 -1.6190969999999998E5
226 225 -1.6281069999999998E5
226 226 3.2472039999999997E5
226 227 -1.6190969999999998E5
227 226 -1.6281069999999998E5
227 227 3.2472039999999997E5
227 228 -1.6190969999999998E5
228 227 -1.6281069999999998E5
228 228 3.2472039999999997E5
228 229 -1.6190969999999998E5
229 228 -1.6281069999999998E5
229 229 3.2472039999999997E5
229 230 -1.6190969999999998E5
230 229 -1.6281069999999998E5
230 230 3.2472039999999997E5
230 231 -1.6190969999999998E5
231 230 -1.6281069999999998E5
231 231 3.2472039999999997E5
231 232 -1.6190969999999998E5
232 231 -1.6281069999999998E5
232 232 3.2472039999999997E5
232 233 -1.6190969999999998E5
233 232 -1.6281069999999998E5
233 233 3.2472039999999997E5
233 234 -1.6190969999999998E5
234 233 -1.6281069999999998E5
234 234 3.2472039999999997E5
234 235 -1.6190969999999998E5
235 234 -1.6281069999999998E5
235 235 3.2472039999999997E5
235 236 -1.6190969999999998E5
236 235 -1.6281069999999998E5
236 236 3.2472039999999997E5
236 237 -1.6190969999999998E5
237 236 -1.6281069999999998E5
237 237 3.2472039999999997E5
237 238 -1.6190969999999998E5
238 237 -1.6281069999999998E5
238 238 3.2472039999999997E5
238 239 -1.6190969999999998E5
239 238 -1.6281069999999998E5
239 239 3.2472039999999997E5
239 240 -1.6190969999999998E5
240 239 -1.6281069999999998E5
240 240 3.2472039999999997E5
240 241 -1.6190969999999998E5
241 240 -1.6281069999999998E5
241 241 3.2472039999999997E5
241 242 -1.6190969999999998E5
242 241 -1.6281069999999998E5
242 242 3.2472039999999997E5
242 243 -1.6190969999999998E5
243 242 -1.6281069999999998E5
243 243 3.2472039999999997E5
243 244 -1.6190969999999998E5
244 243 -1.6281069999999998E5
244 244 3.2472039999999997E5
244 245 -1.6190969999999998E5
245 244 -1.6281069999999998E5
245 245 3.2472039999999997E5
245 246 -1.6190969999999998E5
246 245 -1.6281069999999998E5
246 246 3.2472039999999997E5
246 247 -1.6190969999999998E5
247 246 -1.6281069999999998E5
247 247 3.2472039999999997E5
247 248 -1.6190969999999998E5
248 247 -1.6281069999999998E5
248 248 3.2472039999999997E5
248 249 -1.6190969999999998E5
249 248 -1.6281069999999998E5
249 249 3.2472039999999997E5
249 250 -1.6190969999999998E5
250 249 -1.6281069999999998E5
250 250 3.2472039999999997E5
250 251 -1.6190969999999998E5
251 250 -1.6281069999999998E5
251 251 3.2472039999999997E5
251 252 -1.6190969999999998E5
252 251 -1.6281069999999998E5
252 252 3.2472039999999997E5
252 253 -1.6190969999999998E5
253 252 -1.6281069999999998E5
253 253 3.2472039999999997E5
253 254 -1.6190969999999998E5
254 253 -1.6281069999999998E5
254 254 3.2472039999999997E5
254 255 -1.6190969999999998E5
255 254 -1.6281069999999998E5
255 255 3.2472039999999997E5
255 256 -1.6190969999999998E5
256 255 -1.6281069999999998E5
256 256 3.2472039999999997E5
256 257 -1.6190969999999998E5
257 256 -1.6281069999999998E5
257 257 3.2472039999999997E5
257 258 -1.6190969999999998E5
258 257 -1.6281069999999998E5
258 258 3.2472039999999997E5
258 259 -1.6190969999999998E5
259 258 -1.6281069999999998E5
259 259 3.2472039999999997E5
259 260 -1.6190969999999998E5
260 259 -1.6281069999999998E5
260 260 3.2472039999999997E5
260 261 -1.6190969999999998E5
261 260 -1.6281069999999998E5
261 261 3.2472039999999997E5
261 262 -1.6190969999999998E5
262 261 -1.6281069999999998E5
262 262 3.2472039999999997E5
262 263 -1.6190969999999998E5
263 262 -1.6281069999999998E5
263 263 3.2472039999999997E5
263 264 -1.6190969999999998E5
264 263 -1.6281069999999998E5
264 264 3.2472039999999997E5
264 265 -1.6190969999999998E5
265 264 -1.6281069999999998E5
265 265 3.2472039999999997E5
265 266 -1.6190969999999998E5
266 265 -1.6281069999999998E5
266 266 3.2472039999999997E5
266 267 -1.6190969999999998E5
267 266 -1.6281069999999998E5
267 267 3.2472039999999997E5
267 268 -1.6190969999999998E5
268 267 -1.6281069999999998E5
268 268 3.2472039999999997E5
268 269 -1.6190969999999998E5
269 268 -1.6281069999999998E5
269 269 3.2472039999999997E5
269 270 -1.6190969999999998E5
270 269 -1.6281069999999998E5
270 270 3.2472039999999997E5
270 271 -1.6190969999999998E5
271 270 -1.6281069999999998E5
271 271 3.2472039999999997E5
271 272 -1.6190969999999998E5
272 271 -1.6281069999999998E5
272 272 3.2472039999999997E5
272 273 -1.6190969999999998E5
273 272 -1.6281069999999998E5
273 273 3.2472039999999997E5
273 274 -1.6190969999999998E5
274 273 -1.6281069999999998E5
274 274 3.2472039999999997E5
274 275 -1.6190969999999998E5
275 274 -1.6281069999999998E5
275 275 3.2472039999999997E5
275 276 -1.6190969999999998E5
276 275 -1.6281069999999998E5
276 276 3.2472039999999997E5
276 277 -1.6190969999999998E5
277 276 -1.6281069999999998E5
277 277 3.2472039999999997E5
277 278 -1.6190969999999998E5
278 277 -1.6281069999999998E5
278 278 3.2472039999999997E5
278 279 -1.6190969999999998E5
279 278 -1.6281069999999998E5
279 279 3.2472039999999997E5
279 280 -1.6190969999999998E5
280 279 -1.6281069999999998E5
280 280 3.2472039999999997E5
280 281 -1.6190969999999998E5
281 280 -1.6281069999999998E5
281 281 3.2472039999999997E5
281 282 -1.6190969999999998E5
282 281 -1.6281069999999998E5
282 282 3.2472039999999997E5
282 283 -1.6190969999999998E5
283 282 -1.6281069999999998E5
283 283 3.2472039999999997E5
283 284 -1.6190969999999998E5
284 283 -1.6281069999999998E5
284 284 3.2472039999999997E5
284 285 -1.6190969999999998E5
285 284 -1.6281069999999998E5
285 285 3.2472039999999997E5
285 286 -1.6190969999999998E5
286 285 -1.6281069999999998E5
286 286 3.2472039999999997E5
286 287 -1.6190969999999998E5
287 286 -1.6281069999999998E5
287 287 3.2472039999999997E5
287 288 -1.6190969999999998E5
288 287 -1.6281069999999998E5
288 288 3.2472039999999997E5
288 289 -1.6190969999999998E5
289 288 -1.6281069999999998E5
289 289 3.2472039999999997E5
289 290 -1.6190969999999998E5
290 289 -1.6281069999999998E5
290 290 3.2472039999999997E5
290 291 -1.6190969999999998E5
291 290 -1.6281069999999998E5
291 291 3.2472039999999997E5
291 292 -1.6190969999999998E5
292 291 -1.6281069999999998E5
292 292 3.2472039999999997E5
292 293 -1.6190969999999998E5
293 292 -1.6281069999999998E5
293 293 3.2472039999999997E5
293 294 -1.6190969999999998E5
294 293 -1.6281069999999998E5
294 294 3.2472039999999997E5
294 295 -1.6190969999999998E5
295 294 -1.6281069999999998E5
295 295 3.2472039999999997E5
295 296 -1.6190969999999998E5
296 295 -1.6281069999999998E5
296 296 3.2472039999999997E5
296 297 -1.6190969999999998E5
297 296 -1.6281069999999998E5
297 297 3.2472039999999997E5
297 298 -1.6190969999999998E5
298 297 -1.6281069999999998E5
298 298 3.2472039999999997E5
298 299 -1.6190969999999998E5
299 298 -1.6281069999999998E5
299 299 3.2472039999999997E5
299 300 -1.6190969999999998E5
300 299 -1.6281069999999998E5
300 300 3.2472039999999997E5
300 301 -1.6190969999999998E5
301 300 -1.6281069999999998E5
301 301 3.2472039999999997E5
301 302 -1.6190969999999998E5
302 301 -1.6281069999999998E5
302 302 3.2472039999999997E5
302 303 -1.6190969999999998E5
303 302 -1.6281069999999998E5
303 303 3.2472039999999997E5
303 304 -1.6190969999999998E5
304 303 -1.6281069999999998E5
304 304 3.2472039999999997E5
304 305 -1.6190969999999998E5
305 304 -1.6281069999999998E5
305 305 3.2472039999999997E5
305 306 -1.6190969999999998E5
306 305 -1.6281069999999998E5
306 306 3.2472039999999997E5
306 307 -1.6190969999999998E5
307 306 -1.6281069999999998E5
307 307 3.2472039999999997E5
307 308 -1.6190969999999998E5
308 307 -1.6281069999999998E5
308 308 3.2472039999999997E5
308 309 -1.6190969999999998E5
309 308 -1.6281069999999998E5
309 309 3.2472039999999997E5
309 310 -1.6190969999999998E5
310 309 -1.6281069999999998E5
310 310 3.2472039999999997E5
310 311 -1.6190969999999998E5
311 310 -1.6281069999999998E5
311 311 3.2472039999999997E5
311 312 -1.6190969999999998E5
312 311 -1.6281069999999998E5
312 312 3.2472039999999997E5
312 313 -1.6190969999999998E5
313 312 -1.6281069999999998E5
313 313 3.2472039999999997E5
313 314 -1.6190969999999998E5
314 313 -1.6281069999999998E5
314 314 3.2472039999999997E5
314 315 -1.6190969999999998E5
315 314 -1.6281069999999998E5
315 315 3.2472039999999997E5
315 316 -1.6190969999999998E5
316 315 -1.6281069999999998E5
316 316 3.2472039999999997E5
316 317 -1.6190969999999998E5
317 316 -1.6281069999999998E5
317 317 3.2472039999999997E5
317 318 -1.6190969999999998E5
318 317 -1.6281069999999998E5
318 318 3.2472039999999997E5
318 319 -1.6190969999999998E5
319 318 -1.6281069999999998E5
319 319 3.2472039999999997E5
319 320 -1.6190969999999998E5
320 319 -1.6281069999999998E5
320 320 3.2472039999999997E5
320 321 -1.6190969999999998E5
321 320 -1.6281069999999998E5
321 321 3.2472039999999997E5
321 322 -1.6190969999999998E5
322 321 -1.6281069999999998E5
322 322 3.2472039999999997E5
322 323 -1.6190969999999998E5
323 322 -1.6281069999999998E5
323 323 3.2472039999999997E5
323 324 -1.6190969999999998E5
324 323 -1.6281069999999998E5
324 324 3.2472039999999997E5
324 325 -1.6190969999999998E5
325 324 -1.6281069999999998E5
325 325 3.2472039999999997E5
325 326 -1.6190969999999998E5
326 325 -1.6281069999999998E5
326 326 3.2472039999999997E5
326 327 -1.6190969999999998E5
327 326 -1.6281069999999998E5
327 327 3.2472039999999997E5
327 328 -1.6190969999999998E5
328 327 -1.6281069999999998E5
328 328 3.2472039999999997E5
328 329 -1.6190969999999998E5
329 328 -1.6281069999999998E5
329 329 3.2472039999999997E5
329 330 -1.6190969999999998E5
330 329 -1.6281069999999998E5
330 330 3.2472039999999997E5
330 331 -1.6190969999999998E5
331 330 -1.6281069999999998E5
331 331 3.2472039999999997E5
331 332 -1.6190969999999998E5
332 331 -1.6281069999999998E5
332 332 3.2472039999999997E5
332 333 -1.6190969999999998E5
333 332 -1.6281069999999998E5
333 333 3.2472039999999997E5
333 334 -1.6190969999999998E5
334 333 -1.6281069999999998E5
334 334 3.2472039999999997E5
334 335 -1.6190969999999998E5
335 334 -1.6281069999999998E5
335 335 3.2472039999999997E5
335 336 -1.6190969999999998E5
336 335 -1.6281069999999998E5
336 336 3.2472039999999997E5
336 337 -1.6190969999999998E5
337 336 -1.6281069999999998E5
337 337 3.2472039999999997E5
337 338 -1.6190969999999998E5
338 337 -1.6281069999999998E5
338 338 3.2472039999999997E5
338 339 -1.6190969999999998E5
339 338 -1.6281069999999998E5
339 339 3.2472039999999997E5
339 340 -1.6190969999999998E5
340 339 -1.6281069999999998E5
340 340 3.2472039999999997E5
340 341 -1.6190969999999998E5
341 340 -1.6281069999999998E5
341 341 3.2472039999999997E5
341 342 -1.6190969999999998E5
342 341 -1.6281069999999998E5
342 342 3.2472039999999997E5
342 343 -1.6190969999999998E5
343 342 -1.6281069999999998E5
343 343 3.2472039999999997E5
343 344 -1.6190969999999998E5
344 343 -1.6281069999999998E5
344 344 3.2472039999999997E5
344 345 -1.6190969999999998E5
345 344 -1.6281069999999998E5
345 345 3.2472039999999997E5
345 346 -1.6190969999999998E5
346 345 -1.6281069999999998E5
346 346 3.2472039999999997E5
346 347 -1.6190969999999998E5
347 346 -1.6281069999999998E5
347 347 3.2472039999999997E5
347 348 -1.6190969999999998E5
348 347 -1.6281069999999998E5
348 348 3.2472039999999997E5
348 349 -1.6190969999999998E5
349 348 -1.6281069999999998E5
349 349 3.2472039999999997E5
349 350 -1.6190969999999998E5
350 349 -1.6281069999999998E5
350 350 3.2472039999999997E5
350 351 -1.6190969999999998E5
351 350 -1.6281069999999998E5
351 351 3.2472039999999997E5
351 352 -1.6190969999999998E5
352 351 -1.6281069999999998E5
352 352 3.2472039999999997E5
352 353 -1.6190969999999998E5
353 352 -1.6281069999999998E5
353 353 3.2472039999999997E5
353 354 -1.6190969999999998E5
354 353 -1.6281069999999998E5
354 354 3.2472039999999997E5
354 355 -1.6190969999999998E5
355 354 -1.6281069999999998E5
355 355 3.2472039999999997E5
355 356 -1.6190969999999998E5
356 355 -1.6281069999999998E5
356 356 3.2472039999999997E5
356 357 -1.6190969999999998E5
357 356 -1.6281069999999998E5
357 357 3.2472039999999997E5
357 358 -1.6190969999999998E5
358 357 -1.6281069999999998E5
358 358 3.2472039999999997E5
358 359 -1.6190969999999998E5
359 358 -1.6281069999999998E5
359 359 3.2472039999999997E5
359 360 -1.6190969999999998E5
360 359 -1.6281069999999998E5
360 360 3.2472039999999997E5
360 361 -1.6190969999999998E5
361 360 -1.6281069999999998E5
361 361 3.2472039999999997E5
361 362 -1.6190969999999998E5
362 361 -1.6281069999999998E5
362 362 3.2472039999999997E5
362 363 -1.6190969999999998E5
363 362 -1.6281069999999998E5
363 363 3.2472039999999997E5
363 364 -1.6190969999999998E5
364 363 -1.6281069999999998E5
364 364 3.2472039999999997E5
364 365 -1.6190969999999998E5
365 364 -1.6281069999999998E5
365 365 3.2472039999999997E5
365 366 -1.6190969999999998E5
366 365 -1.6281069999999998E5
366 366 3.2472039999999997E5
366 367 -1.6190969999999998E5
367 366 -1.6281069999999998E5
367 367 3.2472039999999997E5
367 368 -1.6190969999999998E5
368 367 -1.6281069999999998E5
368 368 3.2472039999999997E5
368 369 -1.6190969999999998E5
369 368 -1.6281069999999998E5
369 369 3.2472039999999997E5
369 370 -1.6190969999999998E5
370 369 -1.6281069999999998E5
370 370 3.2472039999999997E5
370 371 -1.6190969999999998E5
371 370 -1.6281069999999998E5
371 371 3.2472039999999997E5
371 372 -1.6190969999999998E5
372 371 -1.6281069999999998E5
372 372 3.2472039999999997E5
372 373 -1.6190969999999998E5
373 372 -1.6281069999999998E5
373 373 3.2472039999999997E5
373 374 -1.6190969999999998E5
374 373 -1.6281069999999998E5
374 374 3.2472039999999997E5
374 375 -1.6190969999999998E5
375 374 -1.6281069999999998E5
375 375 3.2472039999999997E5
375 376 -1.6190969999999998E5
376 375 -1.6281069999999998E5
376 376 3.2472039999999997E5
376 377 -1.6190969999999998E5
377 376 -1.6281069999999998E5
377 377 3.2472039999999997E5
377 378 -1.6190969999999998E5
378 377 -1.6281069999999998E5
378 378 3.2472039999999997E5
378 379 -1.6190969999999998E5
379 378 -1.6281069999999998E5
379 379 3.2472039999999997E5
379 380 -1.6190969999999998E5
380 379 -1.6281069999999998E5
380 380 3.2472039999999997E5
380 381 -1.6190969999999998E5
381 380 -1.6281069999999998E5
381 381 3.2472039999999997E5
381 382 -1.6190969999999998E5
382 381 -1.6281069999999998E5
382 382 3.2472039999999997E5
382 383 -1.6190969999999998E5
383 382 -1.6281069999999998E5
383 383 3.2472039999999997E5
383 384 -1.6190969999999998E5
384 383 -1.6281069999999998E5
384 384 3.2472039999999997E5
384 385 -1.6190969999999998E5
385 384 -1.6281069999999998E5
385 385 3.2472039999999997E5
385 386 -1.6190969999999998E5
386 385 -1.6281069999999998E5
386 386 3.2472039999999997E5
386 387 -1.6190969999999998E5
387 386 -1.6281069999999998E5
387 387 3.2472039999999997E5
387 388 -1.6190969999999998E5
388 387 -1.6281069999999998E5
388 388 3.2472039999999997E5
388 389 -1.6190969999999998E5
389 388 -1.6281069999999998E5
389 389 3.2472039999999997E5
389 390 -1.6190969999999998E5
390 389 -1.6281069999999998E5
390 390 3.2472039999999997E5
390 391 -1.6190969999999998E5
391 390 -1.6281069999999998E5
391 391 3.2472039999999997E5
391 392 -1.6190969999999998E5
392 391 -1.6281069999999998E5
392 392 3.2472039999999997E5
392 393 -1.6190969999999998E5
393 392 -1.6281069999999998E5
393 393 3.2472039999999997E5
393 394 -1.6190969999999998E5
394 393 -1.6281069999999998E5
394 394 3.2472039999999997E5
394 395 -1.6190969999999998E5
395 394 -1.6281069999999998E5
395 395 3.2472039999999997E5
395 396 -1.6190969999999998E5
396 395 -1.6281069999999998E5
396 396 3.2472039999999997E5
396 397 -1.6190969999999998E5
397 396 -1.6281069999999998E5
397 397 3.2472039999999997E5
397 398 -1.6190969999999998E5
398 397 -1.6281069999999998E5
398 398 3.2472039999999997E5
398 399 -1.6190969999999998E5
399 398 -1.6281069999999998E5
399 399 3.2472039999999997E5
399 400 -1.6190969999999998E5
400 399 -1.6281069999999998E5
400 400 3.2472039999999997E5
400 401 -1.6190969999999998E5
401 400 -1.6281069999999998E5
401 401 3.2472039999999997E5
401 402 -1.6190969999999998E5
402 401 -1.6281069999999998E5
402 402 3.2472039999999997E5
402 403 -1.6190969999999998E5
403 402 -1.6281069999999998E5
403 403 3.2472039999999997E5
403 404 -1.6190969999999998E5
404 403 -1.6281069999999998E5
404 404 3.2472039999999997E5
404 405 -1.6190969999999998E5
405 404 -1.6281069999999998E5
405 405 3.2472039999999997E5
405 406 -1.6190969999999998E5
406 405 -1.6281069999999998E5
406 406 3.2472039999999997E5
406 407 -1.6190969999999998E5
407 406 -1.6281069999999998E5
407 407 3.2472039999999997E5
407 408 -1.6190969999999998E5
408 407 -1.6281069999999998E5
408 408 3.2472039999999997E5
408 409 -1.6190969999999998E5
409 408 -1.6281069999999998E5
409 409 3.2472039999999997E5
409 410 -1.6190969999999998E5
410 409 -1.6281069999999998E5
410 410 3.2472039999999997E5
410 411 -1.6190969999999998E5
411 410 -1.6281069999999998E5
411 411 3.2472039999999997E5
411 412 -1.6190969999999998E5
412 411 -1.6281069999999998E5
412 412 3.2472039999999997E5
412 413 -1.6190969999999998E5
413 412 -1.6281069999999998E5
413 413 3.2472039999999997E5
413 414 -1.6190969999999998E5
414 413 -1.6281069999999998E5
414 414 3.2472039999999997E5
414 415 -1.6190969999999998E5
415 414 -1.6281069999999998E5
415 415 3.2472039999999997E5
415 416 -1.6190969999999998E5
416 415 -1.6281069999999998E5
416 416 3.2472039999999997E5
416 417 -1.6190969999999998E5
417 416 -1.6281069999999998E5
417 417 3.2472039999999997E5
417 418 -1.6190969999999998E5
418 417 -1.6281069999999998E5
418 418 3.2472039999999997E5
418 419 -1.6190969999999998E5
419 418 -1.6281069999999998E5
419 419 3.2472039999999997E5
419 420 -1.6190969999999998E5
420 419 -1.6281069999999998E5
420 420 3.2472039999999997E5
420 421 -1.6190969999999998E5
421 420 -1.6281069999999998E5
421 421 3.2472039999999997E5
421 422 -1.6190969999999998E5
422 421 -1.6281069999999998E5
422 422 3.2472039999999997E5
422 423 -1.6190969999999998E5
423 422 -1.6281069999999998E5
423 423 3.2472039999999997E5
423 424 -1.6190969999999998E5
424 423 -1.6281069999999998E5
424 424 3.2472039999999997E5
424 425 -1.6190969999999998E5
425 424 -1.6281069999999998E5
425 425 3.2472039999999997E5
425 426 -1.6190969999999998E5
426 425 -1.6281069999999998E5
426 426 3.2472039999999997E5
426 427 -1.6190969999999998E5
427 426 -1.6281069999999998E5
427 427 3.2472039999999997E5
427 428 -1.6190969999999998E5
428 427 -1.6281069999999998E5
428 428 3.2472039999999997E5
428 429 -1.6190969999999998E5
429 428 -1.6281069999999998E5
429 429 3.2472039999999997E5
429 430 -1.6190969999999998E5
430 429 -1.6281069999999998E5
430 430 3.2472039999999997E5
430 431 -1.6190969999999998E5
431 430 -1.6281069999999998E5
431 431 3.2472039999999997E5
431 432 -1.6190969999999998E5
432 431 -1.6281069999999998E5
432 432 3.2472039999999997E5
432 433 -1.6190969999999998E5
433 432 -1.6281069999999998E5
433 433 3.2472039999999997E5
433 434 -1.6190969999999998E5
434 433 -1.6281069999999998E5
434 434 3.2472039999999997E5
434 435 -1.6190969999999998E5
435 434 -1.6281069999999998E5
435 435 3.2472039999999997E5
435 436 -1.6190969999999998E5
436 435 -1.6281069999999998E5
436 436 3.2472039999999997E5
436 437 -1.6190969999999998E5
437 436 -1.6281069999999998E5
437 437 3.2472039999999997E5
437 438 -1.6190969999999998E5
438 437 -1.6281069999999998E5
438 438 3.2472039999999997E5
438 439 -1.6190969999999998E5
439 438 -1.6281069999999998E5
439 439 3.2472039999999997E5
439 440 -1.6190969999999998E5
440 439 -1.6281069999999998E5
440 440 3.2472039999999997E5
440 441 -1.6190969999999998E5
441 440 -1.6281069999999998E5
441 441 3.2472039999999997E5
441 442 -1.6190969999999998E5
442 441 -1.6281069999999998E5
442 442 3.2472039999999997E5
442 443 -1.6190969999999998E5
443 442 -1.6281069999999998E5
443 443 3.2472039999999997E5
443 444 -1.6190969999999998E5
444 443 -1.6281069999999998E5
444 444 3.2472039999999997E5
444 445 -1.6190969999999998E5
445 444 -1.6281069999999998E5
445 445 3.2472039999999997E5
445 446 -1.6190969999999998E5
446 445 -1.6281069999999998E5
446 446 3.2472039999999997E5
446 447 -1.6190969999999998E5
447 446 -1.6281069999999998E5
447 447 3.2472039999999997E5
447 448 -1.6190969999999998E5
448 447 -1.6281069999999998E5
448 448 3.2472039999999997E5
448 449 -1.6190969999999998E5
449 448 -1.6281069999999998E5
449 449 3.2472039999999997E5
449 450 -1.6190969999999998E5
450 449 -1.6281069999999998E5
450 450 3.2472039999999997E5
450 451 -1.6190969999999998E5
451 450 -1.6281069999999998E5
451 451 3.2472039999999997E5
451 452 -1.6190969999999998E5
452 451 -1.6281069999999998E5
452 452 3.2472039999999997E5
452 453 -1.6190969999999998E5
453 452 -1.6281069999999998E5
453 453 3.2472039999999997E5
453 454 -1.6190969999999998E5
454 453 -1.6281069999999998E5
454 454 3.2472039999999997E5
454 455 -1.6190969999999998E5
455 454 -1.6281069999999998E5
455 455 3.2472039999999997E5
455 456 -1.6190969999999998E5
456 455 -1.6281069999999998E5
456 456 3.2472039999999997E5
456 457 -1.6190969999999998E5
457 456 -1.6281069999999998E5
457 457 3.2472039999999997E5
457 458 -1.6190969999999998E5
458 457 -1.6281069999999998E5
458 458 3.2472039999999997E5
458 459 -1.6190969999999998E5
459 458 -1.6281069999999998E5
459 459 3.2472039999999997E5
459 460 -1.6190969999999998E5
460 459 -1.6281069999999998E5
460 460 3.2472039999999997E5
460 461 -1.6190969999999998E5
461 460 -1.6281069999999998E5
461 461 3.2472039999999997E5
461 462 -1.6190969999999998E5
462 461 -1.6281069999999998E5
462 462 3.2472039999999997E5
462 463 -1.6190969999999998E5
463 462 -1.6281069999999998E5
463 463 3.2472039999999997E5
463 464 -1.6190969999999998E5
464 463 -1.6281069999999998E5
464 464 3.2472039999999997E5
464 465 -1.6190969999999998E5
465 464 -1.6281069999999998E5
465 465 3.2472039999999997E5
465 466 -1.6190969999999998E5
466 465 -1.6281069999999998E5
466 466 3.2472039999999997E5
466 467 -1.6190969999999998E5
467 466 -1.6281069999999998E5
467 467 3.2472039999999997E5
467 468 -1.6190969999999998E5
468 467 -1.6281069999999998E5
468 468 3.2472039999999997E5
468 469 -1.6190969999999998E5
469 468 -1.6281069999999998E5
469 469 3.2472039999999997E5
469 470 -1.6190969999999998E5
470 469 -1.6281069999999998E5
470 470 3.2472039999999997E5
470 471 -1.6190969999999998E5
471 470 -1.6281069999999998E5
471 471 3.2472039999999997E5
471 472 -1.6190969999999998E5
472 471 -1.6281069999999998E5
472 472 3.2472039999999997E5
472 473 -1.6190969999999998E5
473 472 -1.6281069999999998E5
473 473 3.2472039999999997E5
473 474 -1.6190969999999998E5
474 473 -1.6281069999999998E5
474 474 3.2472039999999997E5
474 475 -1.6190969999999998E5
475 474 -1.6281069999999998E5
475 475 3.2472039999999997E5
475 476 -1.6190969999999998E5
476 475 -1.6281069999999998E5
476 476 3.2472039999999997E5
476 477 -1.6190969999999998E5
477 476 -1.6281069999999998E5
477 477 3.2472039999999997E5
477 478 -1.6190969999999998E5
478 477 -1.6281069999999998E5
478 478 3.2472039999999997E5
478 479 -1.6190969999999998E5
479 478 -1.6281069999999998E5
479 479 3.2472039999999997E5
479 480 -1.6190969999999998E5
480 479 -1.6281069999999998E5
480 480 3.2472039999999997E5
480 481 -1.6190969999999998E5
481 480 -1.6281069999999998E5
481 481 3.2472039999999997E5
481 482 -1.6190969999999998E5
482 481 -1.6281069999999998E5
482 482 3.2472039999999997E5
482 483 -1.6190969999999998E5
483 482 -1.6281069999999998E5
483 483 3.2472039999999997E5
483 484 -1.6190969999999998E5
484 483 -1.6281069999999998E5
484 484 3.2472039999999997E5
484 485 -1.6190969999999998E5
485 484 -1.6281069999999998E5
485 485 3.2472039999999997E5
485 486 -1.6190969999999998E5
486 485 -1.6281069999999998E5
486 486 3.2472039999999997E5
486 487 -1.6190969999999998E5
487 486 -1.6281069999999998E5
487 487 3.2472039999999997E5
487 488 -1.6190969999999998E5
488 487 -1.6281069999999998E5
488 488 3.2472039999999997E5
488 489 -1.6190969999999998E5
489 488 -1.6281069999999998E5
489 489 3.2472039999999997E5
489 490 -1.6190969999999998E5
490 489 -1.6281069999999998E5
490 490 3.2472039999999997E5
490 491 -1.6190969999999998E5
491 490 -1.6281069999999998E5
491 491 3.2472039999999997E5
491 492 -1.6190969999999998E5
492 491 -1.6281069999999998E5
492 492 3.2472039999999997E5
492 493 -1.6190969999999998E5
493 492 -1.6281069999999998E5
493 493 3.2472039999999997E5
493 494 -1.6190969999999998E5
494 493 -1.6281069999999998E5
494 494 3.2472039999999997E5
494 495 -1.6190969999999998E5
495 494 -1.6281069999999998E5
495 495 3.2472039999999997E5
495 496 -1.6190969999999998E5
496 495 -1.6281069999999998E5
496 496 3.2472039999999997E5
496 497 -1.6190969999999998E5
497 496 -1.6281069999999998E5
497 497 3.2472039999999997E5
497 498 -1.6190969999999998E5
498 497 -1.6281069999999998E5
498 498 3.2472039999999997E5
498 499 -1.6190969999999998E5
499 498 -1.6281069999999998E5
499 499 3.2472039999999997E5
499 500 -1.6190969999999998E5
500 499 -1.6281069999999998E5
500 500 3.2472039999999997E5
500 501 -1.6190969999999998E5
501 500 -1.6281069999999998E5
501 501 3.2472039999999997E5
501 502 -1.6190969999999998E5
502 501 -1.6281069999999998E5
502 502 3.2472039999999997E5
502 503 -1.6190969999999998E5
503 502 -1.6281069999999998E5
503 503 3.2472039999999997E5
503 504 -1.6190969999999998E5
504 503 -1.6281069999999998E5
504 504 3.2472039999999997E5
504 505 -1.6190969999999998E5
505 504 -1.6281069999999998E5
505 505 3.2472039999999997E5
505 506 -1.6190969999999998E5
506 505 -1.6281069999999998E5
506 506 3.2472039999999997E5
506 507 -1.6190969999999998E5
507 506 -1.6281069999999998E5
507 507 3.2472039999999997E5
507 508 -1.6190969999999998E5
508 507 -1.6281069999999998E5
508 508 3.2472039999999997E5
508 509 -1.6190969999999998E5
509 508 -1.6281069999999998E5
509 509 3.2472039999999997E5
509 510 -1.6190969999999998E5
510 509 -1.6281069999999998E5
510 510 3.2472039999999997E5
510 511 -1.6190969999999998E5
511 510 -1.6281069999999998E5
511 511 3.2472039999999997E5
511 512 -1.6190969999999998E5
512 511 -1.6281069999999998E5
512 512 3.2472039999999997E5
512 513 -1.6190969999999998E5
513 512 -1.6281069999999998E5
513 513 3.2472039999999997E5
513 514 -1.6190969999999998E5
514 513 -1.6281069999999998E5
514 514 3.2472039999999997E5
514 515 -1.6190969999999998E5
515 514 -1.6281069999999998E5
515 515 3.2472039999999997E5
515 516 -1.6190969999999998E5
516 515 -1.6281069999999998E5
516 516 3.2472039999999997E5
516 517 -1.6190969999999998E5
517 516 -1.6281069999999998E5
517 517 3.2472039999999997E5
517 518 -1.6190969999999998E5
518 517 -1.6281069999999998E5
518 518 3.2472039999999997E5
518 519 -1.6190969999999998E5
519 518 -1.6281069999999998E5
519 519 3.2472039999999997E5
519 520 -1.6190969999999998E5
520 519 -1.6281069999999998E5
520 520 3.2472039999999997E5
520 521 -1.6190969999999998E5
521 520 -1.6281069999999998E5
521 521 3.2472039999999997E5
521 522 -1.6190969999999998E5
522 521 -1.6281069999999998E5
522 522 3.2472039999999997E5
522 523 -1.6190969999999998E5
523 522 -1.6281069999999998E5
523 523 3.2472039999999997E5
523 524 -1.6190969999999998E5
524 523 -1.6281069999999998E5
524 524 3.2472039999999997E5
524 525 -1.6190969999999998E5
525 524 -1.6281069999999998E5
525 525 3.2472039999999997E5
525 526 -1.6190969999999998E5
526 525 -1.6281069999999998E5
526 526 3.2472039999999997E5
526 527 -1.6190969999999998E5
527 526 -1.6281069999999998E5
527 527 3.2472039999999997E5
527 528 -1.6190969999999998E5
528 527 -1.6281069999999998E5
528 528 3.2472039999999997E5
528 529 -1.6190969999999998E5
529 528 -1.6281069999999998E5
529 529 3.2472039999999997E5
529 530 -1.6190969999999998E5
530 529 -1.6281069999999998E5
530 530 3.2472039999999997E5
530 531 -1.6190969999999998E5
531 530 -1.6281069999999998E5
531 531 3.2472039999999997E5
531 532 -1.6190969999999998E5
532 531 -1.6281069999999998E5
532 532 3.2472039999999997E5
532 533 -1.6190969999999998E5
533 532 -1.6281069999999998E5
533 533 3.2472039999999997E5
533 534 -1.6190969999999998E5
534 533 -1.6281069999999998E5
534 534 3.2472039999999997E5
534 535 -1.6190969999999998E5
535 534 -1.6281069999999998E5
535 535 3.2472039999999997E5
535 536 -1.6190969999999998E5
536 535 -1.6281069999999998E5
536 536 3.2472039999999997E5
536 537 -1.6190969999999998E5
537 536 -1.6281069999999998E5
537 537 3.2472039999999997E5
537 538 -1.6190969999999998E5
538 537 -1.6281069999999998E5
538 538 3.2472039999999997E5
538 539 -1.6190969999999998E5
539 538 -1.6281069999999998E5
539 539 3.2472039999999997E5
539 540 -1.6190969999999998E5
540 539 -1.6281069999999998E5
540 540 3.2472039999999997E5
540 541 -1.6190969999999998E5
541 540 -1.6281069999999998E5
541 541 3.2472039999999997E5
541 542 -1.6190969999999998E5
542 541 -1.6281069999999998E5
542 542 3.2472039999999997E5
542 543 -1.6190969999999998E5
543 542 -1.6281069999999998E5
543 543 3.2472039999999997E5
543 544 -1.6190969999999998E5
544 543 -1.6281069999999998E5
544 544 3.2472039999999997E5
544 545 -1.6190969999999998E5
545 544 -1.6281069999999998E5
545 545 3.2472039999999997E5
545 546 -1.6190969999999998E5
546 545 -1.6281069999999998E5
546 546 3.2472039999999997E5
546 547 -1.6190969999999998E5
547 546 -1.6281069999999998E5
547 547 3.2472039999999997E5
547 548 -1.6190969999999998E5
548 547 -1.6281069999999998E5
548 548 3.2472039999999997E5
548 549 -1.6190969999999998E5
549 548 -1.6281069999999998E5
549 549 3.2472039999999997E5
549 550 -1.6190969999999998E5
550 549 -1.6281069999999998E5
550 550 3.2472039999999997E5
550 551 -1.6190969999999998E5
551 550 -1.6281069999999998E5
551 551 3.2472039999999997E5
551 552 -1.6190969999999998E5
552 551 -1.6281069999999998E5
552 552 3.2472039999999997E5
552 553 -1.6190969999999998E5
553 552 -1.6281069999999998E5
553 553 3.2472039999999997E5
553 554 -1.6190969999999998E5
554 553 -1.6281069999999998E5
554 554 3.2472039999999997E5
554 555 -1.6190969999999998E5
555 554 -1.6281069999999998E5
555 555 3.2472039999999997E5
555 556 -1.6190969999999998E5
556 555 -1.6281069999999998E5
556 556 3.2472039999999997E5
556 557 -1.6190969999999998E5
557 556 -1.6281069999999998E5
557 557 3.2472039999999997E5
557 558 -1.6190969999999998E5
558 557 -1.6281069999999998E5
558 558 3.2472039999999997E5
558 559 -1.6190969999999998E5
559 558 -1.6281069999999998E5
559 559 3.2472039999999997E5
559 560 -1.6190969999999998E5
560 559 -1.6281069999999998E5
560 560 3.2472039999999997E5
560 561 -1.6190969999999998E5
561 560 -1.6281069999999998E5
561 561 3.2472039999999997E5
561 562 -1.6190969999999998E5
562 561 -1.6281069999999998E5
562 562 3.2472039999999997E5
562 563 -1.6190969999999998E5
563 562 -1.6281069999999998E5
563 563 3.2472039999999997E5
563 564 -1.6190969999999998E5
564 563 -1.6281069999999998E5
564 564 3.2472039999999997E5
564 565 -1.6190969999999998E5
565 564 -1.6281069999999998E5
565 565 3.2472039999999997E5
565 566 -1.6190969999999998E5
566 565 -1.6281069999999998E5
566 566 3.2472039999999997E5
566 567 -1.6190969999999998E5
567 566 -1.6281069999999998E5
567 567 3.2472039999999997E5
567 568 -1.6190969999999998E5
568 567 -1.6281069999999998E5
568 568 3.2472039999999997E5
568 569 -1.6190969999999998E5
569 568 -1.6281069999999998E5
569 569 3.2472039999999997E5
569 570 -1.6190969999999998E5
570 569 -1.6281069999999998E5
570 570 3.2472039999999997E5
570 571 -1.6190969999999998E5
571 570 -1.6281069999999998E5
571 571 3.2472039999999997E5
571 572 -1.6190969999999998E5
572 571 -1.6281069999999998E5
572 572 3.2472039999999997E5
572 573 -1.6190969999999998E5
573 572 -1.6281069999999998E5
573 573 3.2472039999999997E5
573 574 -1.6190969999999998E5
574 573 -1.6281069999999998E5
574 574 3.2472039999999997E5
574 575 -1.6190969999999998E5
575 574 -1.6281069999999998E5
575 575 3.2472039999999997E5
575 576 -1.6190969999999998E5
576 575 -1.6281069999999998E5
576 576 3.2472039999999997E5
576 577 -1.6190969999999998E5
577 576 -1.6281069999999998E5
577 577 3.2472039999999997E5
577 578 -1.6190969999999998E5
578 577 -1.6281069999999998E5
578 578 3.2472039999999997E5
578 579 -1.6190969999999998E5
579 578 -1.6281069999999998E5
579 579 3.2472039999999997E5
579 580 -1.6190969999999998E5
580 579 -1.6281069999999998E5
580 580 3.2472039999999997E5
580 581 -1.6190969999999998E5
581 580 -1.6281069999999998E5
581 581 3.2472039999999997E5
581 582 -1.6190969999999998E5
582 581 -1.6281069999999998E5
582 582 3.2472039999999997E5
582 583 -1.6190969999999998E5
583 582 -1.6281069999999998E5
583 583 3.2472039999999997E5
583 584 -1.6190969999999998E5
584 583 -1.6281069999999998E5
584 584 3.2472039999999997E5
584 585 -1.6190969999999998E5
585 584 -1.6281069999999998E5
585 585 3.2472039999999997E5
585 586 -1.6190969999999998E5
586 585 -1.6281069999999998E5
586 586 3.2472039999999997E5
586 587 -1.6190969999999998E5
587 586 -1.6281069999999998E5
587 587 3.2472039999999997E5
587 588 -1.6190969999999998E5
588 587 -1.6281069999999998E5
588 588 3.2472039999999997E5
588 589 -1.6190969999999998E5
589 588 -1.6281069999999998E5
589 589 3.2472039999999997E5
589 590 -1.6190969999999998E5
590 589 -1.6281069999999998E5
590 590 3.2472039999999997E5
590 591 -1.6190969999999998E5
591 590 -1.6281069999999998E5
591 591 3.2472039999999997E5
591 592 -1.6190969999999998E5
592 591 -1.6281069999999998E5
592 592 3.2472039999999997E5
592 593 -1.6190969999999998E5
593 592 -1.6281069999999998E5
593 593 3.2472039999999997E5
593 594 -1.6190969999999998E5
594 593 -1.6281069999999998E5
594 594 3.2472039999999997E5
594 595 -1.6190969999999998E5
595 594 -1.6281069999999998E5
595 595 3.2472039999999997E5
595 596 -1.6190969999999998E5
596 595 -1.6281069999999998E5
596 596 3.2472039999999997E5
596 597 -1.6190969999999998E5
597 596 -1.6281069999999998E5
597 597 3.2472039999999997E5
597 598 -1.6190969999999998E5
598 597 -1.6281069999999998E5
598 598 3.2472039999999997E5
598 599 -1.6190969999999998E5
599 598 -1.6281069999999998E5
599 599 3.2472039999999997E5
599 600 -1.6190969999999998E5
600 599 -1.6281069999999998E5
600 600 3.2472039999999997E5
600 601 -1.6190969999999998E5
601 600 -1.6281069999999998E5
601 601 3.2472039999999997E5
601 602 -1.6190969999999998E5
602 601 -1.6281069999999998E5
602 602 3.2472039999999997E5
602 603 -1.6190969999999998E5
603 602 -1.6281069999999998E5
603 603 3.2472039999999997E5
603 604 -1.6190969999999998E5
604 603 -1.6281069999999998E5
604 604 3.2472039999999997E5
604 605 -1.6190969999999998E5
605 604 -1.6281069999999998E5
605 605 3.2472039999999997E5
605 606 -1.6190969999999998E5
606 605 -1.6281069999999998E5
606 606 3.2472039999999997E5
606 607 -1.6190969999999998E5
607 606 -1.6281069999999998E5
607 607 3.2472039999999997E5
607 608 -1.6190969999999998E5
608 607 -1.6281069999999998E5
608 608 3.2472039999999997E5
608 609 -1.6190969999999998E5
609 608 -1.6281069999999998E5
609 609 3.2472039999999997E5
609 610 -1.6190969999999998E5
610 609 -1.6281069999999998E5
610 610 3.2472039999999997E5
610 611 -1.6190969999999998E5
611 610 -1.6281069999999998E5
611 611 3.2472039999999997E5
611 612 -1.6190969999999998E5
612 611 -1.6281069999999998E5
612 612 3.2472039999999997E5
612 613 -1.6190969999999998E5
613 612 -1.6281069999999998E5
613 613 3.2472039999999997E5
613 614 -1.6190969999999998E5
614 613 -1.6281069999999998E5
614 614 3.2472039999999997E5
614 615 -1.6190969999999998E5
615 614 -1.6281069999999998E5
615 615 3.2472039999999997E5
615 616 -1.6190969999999998E5
616 615 -1.6281069999999998E5
616 616 3.2472039999999997E5
616 617 -1.6190969999999998E5
617 616 -1.6281069999999998E5
617 617 3.2472039999999997E5
617 618 -1.6190969999999998E5
618 617 -1.6281069999999998E5
618 618 3.2472039999999997E5
618 619 -1.6190969999999998E5
619 618 -1.6281069999999998E5
619 619 3.2472039999999997E5
619 620 -1.6190969999999998E5
620 619 -1.6281069999999998E5
620 620 3.2472039999999997E5
620 621 -1.6190969999999998E5
621 620 -1.6281069999999998E5
621 621 3.2472039999999997E5
621 622 -1.6190969999999998E5
622 621 -1.6281069999999998E5
622 622 3.2472039999999997E5
622 623 -1.6190969999999998E5
623 622 -1.6281069999999998E5
623 623 3.2472039999999997E5
623 624 -1.6190969999999998E5
624 623 -1.6281069999999998E5
624 624 3.2472039999999997E5
624 625 -1.6190969999999998E5
625 624 -1.6281069999999998E5
625 625 3.2472039999999997E5
625 626 -1.6190969999999998E5
626 625 -1.6281069999999998E5
626 626 3.2472039999999997E5
626 627 -1.6190969999999998E5
627 626 -1.6281069999999998E5
627 627 3.2472039999999997E5
627 628 -1.6190969999999998E5
628 627 -1.6281069999999998E5
628 628 3.2472039999999997E5
628 629 -1.6190969999999998E5
629 628 -1.6281069999999998E5
629 629 3.2472039999999997E5
629 630 -1.6190969999999998E5
630 629 -1.6281069999999998E5
630 630 3.2472039999999997E5
630 631 -1.6190969999999998E5
631 630 -1.6281069999999998E5
631 631 3.2472039999999997E5
631 632 -1.6190969999999998E5
632 631 -1.6281069999999998E5
632 632 3.2472039999999997E5
632 633 -1.6190969999999998E5
633 632 -1.6281069999999998E5
633 633 3.2472039999999997E5
633 634 -1.6190969999999998E5
634 633 -1.6281069999999998E5
634 634 3.2472039999999997E5
634 635 -1.6190969999999998E5
635 634 -1.6281069999999998E5
635 635 3.2472039999999997E5
635 636 -1.6190969999999998E5
636 635 -1.6281069999999998E5
636 636 3.2472039999999997E5
636 637 -1.6190969999999998E5
637 636 -1.6281069999999998E5
637 637 3.2472039999999997E5
637 638 -1.6190969999999998E5
638 637 -1.6281069999999998E5
638 638 3.2472039999999997E5
638 639 -1.6190969999999998E5
639 638 -1.6281069999999998E5
639 639 3.2472039999999997E5
639 640 -1.6190969999999998E5
640 639 -1.6281069999999998E5
640 640 3.2472039999999997E5
640 641 -1.6190969999999998E5
641 640 -1.6281069999999998E5
641 641 3.2472039999999997E5
641 642 -1.6190969999999998E5
642 641 -1.6281069999999998E5
642 642 3.2472039999999997E5
642 643 -1.6190969999999998E5
643 642 -1.6281069999999998E5
643 643 3.2472039999999997E5
643 644 -1.6190969999999998E5
644 643 -1.6281069999999998E5
644 644 3.2472039999999997E5
644 645 -1.6190969999999998E5
645 644 -1.6281069999999998E5
645 645 3.2472039999999997E5
645 646 -1.6190969999999998E5
646 645 -1.6281069999999998E5
646 646 3.2472039999999997E5
646 647 -1.6190969999999998E5
647 646 -1.6281069999999998E5
647 647 3.2472039999999997E5
647 648 -1.6190969999999998E5
648 647 -1.6281069999999998E5
648 648 3.2472039999999997E5
648 649 -1.6190969999999998E5
649 648 -1.6281069999999998E5
649 649 3.2472039999999997E5
649 650 -1.6190969999999998E5
650 649 -1.6281069999999998E5
650 650 3.2472039999999997E5
650 651 -1.6190969999999998E5
651 650 -1.6281069999999998E5
651 651 3.2472039999999997E5
651 652 -1.6190969999999998E5
652 651 -1.6281069999999998E5
652 652 3.2472039999999997E5
652 653 -1.6190969999999998E5
653 652 -1.6281069999999998E5
653 653 3.2472039999999997E5
653 654 -1.6190969999999998E5
654 653 -1.6281069999999998E5
654 654 3.2472039999999997E5
654 655 -1.6190969999999998E5
655 654 -1.6281069999999998E5
655 655 3.2472039999999997E5
655 656 -1.6190969999999998E5
656 655 -1.6281069999999998E5
656 656 3.2472039999999997E5
656 657 -1.6190969999999998E5
657 656 -1.6281069999999998E5
657 657 3.2472039999999997E5
657 658 -1.6190969999999998E5
658 657 -1.6281069999999998E5
658 658 3.2472039999999997E5
658 659 -1.6190969999999998E5
659 658 -1.6281069999999998E5
659 659 3.2472039999999997E5
659 660 -1.6190969999999998E5
660 659 -1.6281069999999998E5
660 660 3.2472039999999997E5
660 661 -1.6190969999999998E5
661 660 -1.6281069999999998E5
661 661 3.2472039999999997E5
661 662 -1.6190969999999998E5
662 661 -1.6281069999999998E5
662 662 3.2472039999999997E5
662 663 -1.6190969999999998E5
663 662 -1.6281069999999998E5
663 663 3.2472039999999997E5
663 664 -1.6190969999999998E5
664 663 -1.6281069999999998E5
664 664 3.2472039999999997E5
664 665 -1.6190969999999998E5
665 664 -1.6281069999999998E5
665 665 3.2472039999999997E5
665 666 -1.6190969999999998E5
666 665 -1.6281069999999998E5
666 666 3.2472039999999997E5
666 667 -1.6190969999999998E5
667 666 -1.6281069999999998E5
667 667 3.2472039999999997E5
667 668 -1.6190969999999998E5
668 667 -1.6281069999999998E5
668 668 3.2472039999999997E5
668 669 -1.6190969999999998E5
669 668 -1.6281069999999998E5
669 669 3.2472039999999997E5
669 670 -1.6190969999999998E5
670 669 -1.6281069999999998E5
670 670 3.2472039999999997E5
670 671 -1.6190969999999998E5
671 670 -1.6281069999999998E5
671 671 3.2472039999999997E5
671 672 -1.6190969999999998E5
672 671 -1.6281069999999998E5
672 672 3.2472039999999997E5
672 673 -1.6190969999999998E5
673 672 -1.6281069999999998E5
673 673 3.2472039999999997E5
673 674 -1.6190969999999998E5
674 673 -1.6281069999999998E5
674 674 3.2472039999999997E5
674 675 -1.6190969999999998E5
675 674 -1.6281069999999998E5
675 675 3.2472039999999997E5
675 676 -1.6190969999999998E5
676 675 -1.6281069999999998E5
676 676 3.2472039999999997E5
676 677 -1.6190969999999998E5
677 676 -1.6281069999999998E5
677 677 3.2472039999999997E5
677 678 -1.6190969999999998E5
678 677 -1.6281069999999998E5
678 678 3.2472039999999997E5
678 679 -1.6190969999999998E5
679 678 -1.6281069999999998E5
679 679 3.2472039999999997E5
679 680 -1.6190969999999998E5
680 679 -1.6281069999999998E5
680 680 3.2472039999999997E5
680 681 -1.6190969999999998E5
681 680 -1.6281069999999998E5
681 681 3.2472039999999997E5
681 682 -1.6190969999999998E5
682 681 -1.6281069999999998E5
682 682 3.2472039999999997E5
682 683 -1.6190969999999998E5
683 682 -1.6281069999999998E5
683 683 3.2472039999999997E5
683 684 -1.6190969999999998E5
684 683 -1.6281069999999998E5
684 684 3.2472039999999997E5
684 685 -1.6190969999999998E5
685 684 -1.6281069999999998E5
685 685 3.2472039999999997E5
685 686 -1.6190969999999998E5
686 685 -1.6281069999999998E5
686 686 3.2472039999999997E5
686 687 -1.6190969999999998E5
687 686 -1.6281069999999998E5
687 687 3.2472039999999997E5
687 688 -1.6190969999999998E5
688 687 -1.6281069999999998E5
688 688 3.2472039999999997E5
688 689 -1.6190969999999998E5
689 688 -1.6281069999999998E5
689 689 3.2472039999999997E5
689 690 -1.6190969999999998E5
690 689 -1.6281069999999998E5
690 690 3.2472039999999997E5
690 691 -1.6190969999999998E5
691 690 -1.6281069999999998E5
691 691 3.2472039999999997E5
691 692 -1.6190969999999998E5
692 691 -1.6281069999999998E5
692 692 3.2472039999999997E5
692 693 -1.6190969999999998E5
693 692 -1.6281069999999998E5
693 693 3.2472039999999997E5
693 694 -1.6190969999999998E5
694 693 -1.6281069999999998E5
694 694 3.2472039999999997E5
694 695 -1.6190969999999998E5
695 694 -1.6281069999999998E5
695 695 3.2472039999999997E5
695 696 -1.6190969999999998E5
696 695 -1.6281069999999998E5
696 696 3.2472039999999997E5
696 697 -1.6190969999999998E5
697 696 -1.6281069999999998E5
697 697 3.2472039999999997E5
697 698 -1.6190969999999998E5
698 697 -1.6281069999999998E5
698 698 3.2472039999999997E5
698 699 -1.6190969999999998E5
699 698 -1.6281069999999998E5
699 699 3.2472039999999997E5
699 700 -1.6190969999999998E5
700 699 -1.6281069999999998E5
700 700 3.2472039999999997E5
700 701 -1.6190969999999998E5
701 700 -1.6281069999999998E5
701 701 3.2472039999999997E5
701 702 -1.6190969999999998E5
702 701 -1.6281069999999998E5
702 702 3.2472039999999997E5
702 703 -1.6190969999999998E5
703 702 -1.6281069999999998E5
703 703 3.2472039999999997E5
703 704 -1.6190969999999998E5
704 703 -1.6281069999999998E5
704 704 3.2472039999999997E5
704 705 -1.6190969999999998E5
705 704 -1.6281069999999998E5
705 705 3.2472039999999997E5
705 706 -1.6190969999999998E5
706 705 -1.6281069999999998E5
706 706 3.2472039999999997E5
706 707 -1.6190969999999998E5
707 706 -1.6281069999999998E5
707 707 3.2472039999999997E5
707 708 -1.6190969999999998E5
708 707 -1.6281069999999998E5
708 708 3.2472039999999997E5
708 709 -1.6190969999999998E5
709 708 -1.6281069999999998E5
709 709 3.2472039999999997E5
709 710 -1.6190969999999998E5
710 709 -1.6281069999999998E5
710 710 3.2472039999999997E5
710 711 -1.6190969999999998E5
711 710 -1.6281069999999998E5
711 711 3.2472039999999997E5
711 712 -1.6190969999999998E5
712 711 -1.6281069999999998E5
712 712 3.2472039999999997E5
712 713 -1.6190969999999998E5
713 712 -1.6281069999999998E5
713 713 3.2472039999999997E5
713 714 -1.6190969999999998E5
714 713 -1.6281069999999998E5
714 714 3.2472039999999997E5
714 715 -1.6190969999999998E5
715 714 -1.6281069999999998E5
715 715 3.2472039999999997E5
715 716 -1.6190969999999998E5
716 715 -1.6281069999999998E5
716 716 3.2472039999999997E5
716 717 -1.6190969999999998E5
717 716 -1.6281069999999998E5
717 717 3.2472039999999997E5
717 718 -1.6190969999999998E5
718 717 -1.6281069999999998E5
718 718 3.2472039999999997E5
718 719 -1.6190969999999998E5
719 718 -1.6281069999999998E5
719 719 3.2472039999999997E5
719 720 -1.6190969999999998E5
720 719 -1.6281069999999998E5
720 720 3.2472039999999997E5
720 721 -1.6190969999999998E5
721 720 -1.6281069999999998E5
721 721 3.2472039999999997E5
721 722 -1.6190969999999998E5
722 721 -1.6281069999999998E5
722 722 3.2472039999999997E5
722 723 -1.6190969999999998E5
723 722 -1.6281069999999998E5
723 723 3.2472039999999997E5
723 724 -1.6190969999999998E5
724 723 -1.6281069999999998E5
724 724 3.2472039999999997E5
724 725 -1.6190969999999998E5
725 724 -1.6281069999999998E5
725 725 3.2472039999999997E5
725 726 -1.6190969999999998E5
726 725 -1.6281069999999998E5
726 726 3.2472039999999997E5
726 727 -1.6190969999999998E5
727 726 -1.6281069999999998E5
727 727 3.2472039999999997E5
727 728 -1.6190969999999998E5
728 727 -1.6281069999999998E5
728 728 3.2472039999999997E5
728 729 -1.6190969999999998E5
729 728 -1.6281069999999998E5
729 729 3.2472039999999997E5
729 730 -1.6190969999999998E5
730 729 -1.6281069999999998E5
730 730 3.2472039999999997E5
730 731 -1.6190969999999998E5
731 730 -1.6281069999999998E5
731 731 3.2472039999999997E5
731 732 -1.6190969999999998E5
732 731 -1.6281069999999998E5
732 732 3.2472039999999997E5
732 733 -1.6190969999999998E5
733 732 -1.6281069999999998E5
733 733 3.2472039999999997E5
733 734 -1.6190969999999998E5
734 733 -1.6281069999999998E5
734 734 3.2472039999999997E5
734 735 -1.6190969999999998E5
735 734 -1.6281069999999998E5
735 735 3.2472039999999997E5
735 736 -1.6190969999999998E5
736 735 -1.6281069999999998E5
736 736 3.2472039999999997E5
736 737 -1.6190969999999998E5
737 736 -1.6281069999999998E5
737 737 3.2472039999999997E5
737 738 -1.6190969999999998E5
738 737 -1.6281069999999998E5
738 738 3.2472039999999997E5
738 739 -1.6190969999999998E5
739 738 -1.6281069999999998E5
739 739 3.2472039999999997E5
739 740 -1.6190969999999998E5
740 739 -1.6281069999999998E5
740 740 3.2472039999999997E5
740 741 -1.6190969999999998E5
741 740 -1.6281069999999998E5
741 741 3.2472039999999997E5
741 742 -1.6190969999999998E5
742 741 -1.6281069999999998E5
742 742 3.2472039999999997E5
742 743 -1.6190969999999998E5
743 742 -1.6281069999999998E5
743 743 3.2472039999999997E5
743 744 -1.6190969999999998E5
744 743 -1.6281069999999998E5
744 744 3.2472039999999997E5
744 745 -1.6190969999999998E5
745 744 -1.6281069999999998E5
745 745 3.2472039999999997E5
745 746 -1.6190969999999998E5
746 745 -1.6281069999999998E5
746 746 3.2472039999999997E5
746 747 -1.6190969999999998E5
747 746 -1.6281069999999998E5
747 747 3.2472039999999997E5
747 748 -1.6190969999999998E5
748 747 -1.6281069999999998E5
748 748 3.2472039999999997E5
748 749 -1.6190969999999998E5
749 748 -1.6281069999999998E5
749 749 3.2472039999999997E5
749 750 -1.6190969999999998E5
750 749 -1.6281069999999998E5
750 750 3.2472039999999997E5
750 751 -1.6190969999999998E5
751 750 -1.6281069999999998E5
751 751 3.2472039999999997E5
751 752 -1.6190969999999998E5
752 751 -1.6281069999999998E5
752 752 3.2472039999999997E5
752 753 -1.6190969999999998E5
753 752 -1.6281069999999998E5
753 753 3.2472039999999997E5
753 754 -1.6190969999999998E5
754 753 -1.6281069999999998E5
754 754 3.2472039999999997E5
754 755 -1.6190969999999998E5
755 754 -1.6281069999999998E5
755 755 3.2472039999999997E5
755 756 -1.6190969999999998E5
756 755 -1.6281069999999998E5
756 756 3.2472039999999997E5
756 757 -1.6190969999999998E5
757 756 -1.6281069999999998E5
757 757 3.2472039999999997E5
757 758 -1.6190969999999998E5
758 757 -1.6281069999999998E5
758 758 3.2472039999999997E5
758 759 -1.6190969999999998E5
759 758 -1.6281069999999998E5
759 759 3.2472039999999997E5
759 760 -1.6190969999999998E5
760 759 -1.6281069999999998E5
760 760 3.2472039999999997E5
760 761 -1.6190969999999998E5
761 760 -1.6281069999999998E5
761 761 3.2472039999999997E5
761 762 -1.6190969999999998E5
762 761 -1.6281069999999998E5
762 762 3.2472039999999997E5
762 763 -1.6190969999999998E5
763 762 -1.6281069999999998E5
763 763 3.2472039999999997E5
763 764 -1.6190969999999998E5
764 763 -1.6281069999999998E5
764 764 3.2472039999999997E5
764 765 -1.6190969999999998E5
765 764 -1.6281069999999998E5
765 765 3.2472039999999997E5
765 766 -1.6190969999999998E5
766 765 -1.6281069999999998E5
766 766 3.2472039999999997E5
766 767 -1.6190969999999998E5
767 766 -1.6281069999999998E5
767 767 3.2472039999999997E5
767 768 -1.6190969999999998E5
768 767 -1.6281069999999998E5
768 768 3.2472039999999997E5
768 769 -1.6190969999999998E5
769 768 -1.6281069999999998E5
769 769 3.2472039999999997E5
769 770 -1.6190969999999998E5
770 769 -1.6281069999999998E5
770 770 3.2472039999999997E5
770 771 -1.6190969999999998E5
771 770 -1.6281069999999998E5
771 771 3.2472039999999997E5
771 772 -1.6190969999999998E5
772 771 -1.6281069999999998E5
772 772 3.2472039999999997E5
772 773 -1.6190969999999998E5
773 772 -1.6281069999999998E5
773 773 3.2472039999999997E5
773 774 -1.6190969999999998E5
774 773 -1.6281069999999998E5
774 774 3.2472039999999997E5
774 775 -1.6190969999999998E5
775 774 -1.6281069999999998E5
775 775 3.2472039999999997E5
775 776 -1.6190969999999998E5
776 775 -1.6281069999999998E5
776 776 3.2472039999999997E5
776 777 -1.6190969999999998E5
777 776 -1.6281069999999998E5
777 777 3.2472039999999997E5
777 778 -1.6190969999999998E5
778 777 -1.6281069999999998E5
778 778 3.2472039999999997E5
778 779 -1.6190969999999998E5
779 778 -1.6281069999999998E5
779 779 3.2472039999999997E5
779 780 -1.6190969999999998E5
780 779 -1.6281069999999998E5
780 780 3.2472039999999997E5
780 781 -1.6190969999999998E5
781 780 -1.6281069999999998E5
781 781 3.2472039999999997E5
781 782 -1.6190969999999998E5
782 781 -1.6281069999999998E5
782 782 3.2472039999999997E5
782 783 -1.6190969999999998E5
783 782 -1.6281069999999998E5
783 783 3.2472039999999997E5
783 784 -1.6190969999999998E5
784 783 -1.6281069999999998E5
784 784 3.2472039999999997E5
784 785 -1.6190969999999998E5
785 784 -1.6281069999999998E5
785 785 3.2472039999999997E5
785 786 -1.6190969999999998E5
786 785 -1.6281069999999998E5
786 786 3.2472039999999997E5
786 787 -1.6190969999999998E5
787 786 -1.6281069999999998E5
787 787 3.2472039999999997E5
787 788 -1.6190969999999998E5
788 787 -1.6281069999999998E5
788 788 3.2472039999999997E5
788 789 -1.6190969999999998E5
789 788 -1.6281069999999998E5
789 789 3.2472039999999997E5
789 790 -1.6190969999999998E5
790 789 -1.6281069999999998E5
790 790 3.2472039999999997E5
790 791 -1.6190969999999998E5
791 790 -1.6281069999999998E5
791 791 3.2472039999999997E5
791 792 -1.6190969999999998E5
792 791 -1.6281069999999998E5
792 792 3.2472039999999997E5
792 793 -1.6190969999999998E5
793 792 -1.6281069999999998E5
793 793 3.2472039999999997E5
793 794 -1.6190969999999998E5
794 793 -1.6281069999999998E5
794 794 3.2472039999999997E5
794 795 -1.6190969999999998E5
795 794 -1.6281069999999998E5
795 795 3.2472039999999997E5
795 796 -1.6190969999999998E5
796 795 -1.6281069999999998E5
796 796 3.2472039999999997E5
796 797 -1.6190969999999998E5
797 796 -1.6281069999999998E5
797 797 3.2472039999999997E5
797 798 -1.6190969999999998E5
798 797 -1.6281069999999998E5
798 798 3.2472039999999997E5
798 799 -1.6190969999999998E5
799 798 -1.6281069999999998E5
799 799 3.2472039999999997E5
799 800 -1.6190969999999998E5
800 799 -1.6281069999999998E5
800 800 3.2472039999999997E5
800 801 -1.6190969999999998E5
801 800 -1.6281069999999998E5
801 801 3.2472039999999997E5
801 802 -1.6190969999999998E5
802 801 -1.6281069999999998E5
802 802 3.2472039999999997E5
802 803 -1.6190969999999998E5
803 802 -1.6281069999999998E5
803 803 3.2472039999999997E5
803 804 -1.6190969999999998E5
804 803 -1.6281069999999998E5
804 804 3.2472039999999997E5
804 805 -1.6190969999999998E5
805 804 -1.6281069999999998E5
805 805 3.2472039999999997E5
805 806 -1.6190969999999998E5
806 805 -1.6281069999999998E5
806 806 3.2472039999999997E5
806 807 -1.6190969999999998E5
807 806 -1.6281069999999998E5
807 807 3.2472039999999997E5
807 808 -1.6190969999999998E5
808 807 -1.6281069999999998E5
808 808 3.2472039999999997E5
808 809 -1.6190969999999998E5
809 808 -1.6281069999999998E5
809 809 3.2472039999999997E5
809 810 -1.6190969999999998E5
810 809 -1.6281069999999998E5
810 810 3.2472039999999997E5
810 811 -1.6190969999999998E5
811 810 -1.6281069999999998E5
811 811 3.2472039999999997E5
811 812 -1.6190969999999998E5
812 811 -1.6281069999999998E5
812 812 3.2472039999999997E5
812 813 -1.6190969999999998E5
813 812 -1.6281069999999998E5
813 813 3.2472039999999997E5
813 814 -1.6190969999999998E5
814 813 -1.6281069999999998E5
814 814 3.2472039999999997E5
814 815 -1.6190969999999998E5
815 814 -1.6281069999999998E5
815 815 3.2472039999999997E5
815 816 -1.6190969999999998E5
816 815 -1.6281069999999998E5
816 816 3.2472039999999997E5
816 817 -1.6190969999999998E5
817 816 -1.6281069999999998E5
817 817 3.2472039999999997E5
817 818 -1.6190969999999998E5
818 817 -1.6281069999999998E5
818 818 3.2472039999999997E5
818 819 -1.6190969999999998E5
819 818 -1.6281069999999998E5
819 819 3.2472039999999997E5
819 820 -1.6190969999999998E5
820 819 -1.6281069999999998E5
820 820 3.2472039999999997E5
820 821 -1.6190969999999998E5
821 820 -1.6281069999999998E5
821 821 3.2472039999999997E5
821 822 -1.6190969999999998E5
822 821 -1.6281069999999998E5
822 822 3.2472039999999997E5
822 823 -1.6190969999999998E5
823 822 -1.6281069999999998E5
823 823 3.2472039999999997E5
823 824 -1.6190969999999998E5
824 823 -1.6281069999999998E5
824 824 3.2472039999999997E5
824 825 -1.6190969999999998E5
825 824 -1.6281069999999998E5
825 825 3.2472039999999997E5
825 826 -1.6190969999999998E5
826 825 -1.6281069999999998E5
826 826 3.2472039999999997E5
826 827 -1.6190969999999998E5
827 826 -1.6281069999999998E5
827 827 3.2472039999999997E5
827 828 -1.6190969999999998E5
828 827 -1.6281069999999998E5
828 828 3.2472039999999997E5
828 829 -1.6190969999999998E5
829 828 -1.6281069999999998E5
829 829 3.2472039999999997E5
829 830 -1.6190969999999998E5
830 829 -1.6281069999999998E5
830 830 3.2472039999999997E5
830 831 -1.6190969999999998E5
831 830 -1.6281069999999998E5
831 831 3.2472039999999997E5
831 832 -1.6190969999999998E5
832 831 -1.6281069999999998E5
832 832 3.2472039999999997E5
832 833 -1.6190969999999998E5
833 832 -1.6281069999999998E5
833 833 3.2472039999999997E5
833 834 -1.6190969999999998E5
834 833 -1.6281069999999998E5
834 834 3.2472039999999997E5
834 835 -1.6190969999999998E5
835 834 -1.6281069999999998E5
835 835 3.2472039999999997E5
835 836 -1.6190969999999998E5
836 835 -1.6281069999999998E5
836 836 3.2472039999999997E5
836 837 -1.6190969999999998E5
837 836 -1.6281069999999998E5
837 837 3.2472039999999997E5
837 838 -1.6190969999999998E5
838 837 -1.6281069999999998E5
838 838 3.2472039999999997E5
838 839 -1.6190969999999998E5
839 838 -1.6281069999999998E5
839 839 3.2472039999999997E5
839 840 -1.6190969999999998E5
840 839 -1.6281069999999998E5
840 840 3.2472039999999997E5
840 841 -1.6190969999999998E5
841 840 -1.6281069999999998E5
841 841 3.2472039999999997E5
841 842 -1.6190969999999998E5
842 841 -1.6281069999999998E5
842 842 3.2472039999999997E5
842 843 -1.6190969999999998E5
843 842 -1.6281069999999998E5
843 843 3.2472039999999997E5
843 844 -1.6190969999999998E5
844 843 -1.6281069999999998E5
844 844 3.2472039999999997E5
844 845 -1.6190969999999998E5
845 844 -1.6281069999999998E5
845 845 3.2472039999999997E5
845 846 -1.6190969999999998E5
846 845 -1.6281069999999998E5
846 846 3.2472039999999997E5
846 847 -1.6190969999999998E5
847 846 -1.6281069999999998E5
847 847 3.2472039999999997E5
847 848 -1.6190969999999998E5
848 847 -1.6281069999999998E5
848 848 3.2472039999999997E5
848 849 -1.6190969999999998E5
849 848 -1.6281069999999998E5
849 849 3.2472039999999997E5
849 850 -1.6190969999999998E5
850 849 -1.6281069999999998E5
850 850 3.2472039999999997E5
850 851 -1.6190969999999998E5
851 850 -1.6281069999999998E5
851 851 3.2472039999999997E5
851 852 -1.6190969999999998E5
852 851 -1.6281069999999998E5
852 852 3.2472039999999997E5
852 853 -1.6190969999999998E5
853 852 -1.6281069999999998E5
853 853 3.2472039999999997E5
853 854 -1.6190969999999998E5
854 853 -1.6281069999999998E5
854 854 3.2472039999999997E5
854 855 -1.6190969999999998E5
855 854 -1.6281069999999998E5
855 855 3.2472039999999997E5
855 856 -1.6190969999999998E5
856 855 -1.6281069999999998E5
856 856 3.2472039999999997E5
856 857 -1.6190969999999998E5
857 856 -1.6281069999999998E5
857 857 3.2472039999999997E5
857 858 -1.6190969999999998E5
858 857 -1.6281069999999998E5
858 858 3.2472039999999997E5
858 859 -1.6190969999999998E5
859 858 -1.6281069999999998E5
859 859 3.2472039999999997E5
859 860 -1.6190969999999998E5
860 859 -1.6281069999999998E5
860 860 3.2472039999999997E5
860 861 -1.6190969999999998E5
861 860 -1.6281069999999998E5
861 861 3.2472039999999997E5
861 862 -1.6190969999999998E5
862 861 -1.6281069999999998E5
862 862 3.2472039999999997E5
862 863 -1.6190969999999998E5
863 862 -1.6281069999999998E5
863 863 3.2472039999999997E5
863 864 -1.6190969999999998E5
864 863 -1.6281069999999998E5
864 864 3.2472039999999997E5
864 865 -1.6190969999999998E5
865 864 -1.6281069999999998E5
865 865 3.2472039999999997E5
865 866 -1.6190969999999998E5
866 865 -1.6281069999999998E5
866 866 3.2472039999999997E5
866 867 -1.6190969999999998E5
867 866 -1.6281069999999998E5
867 867 3.2472039999999997E5
867 868 -1.6190969999999998E5
868 867 -1.6281069999999998E5
868 868 3.2472039999999997E5
868 869 -1.6190969999999998E5
869 868 -1.6281069999999998E5
869 869 3.2472039999999997E5
869 870 -1.6190969999999998E5
870 869 -1.6281069999999998E5
870 870 3.2472039999999997E5
870 871 -1.6190969999999998E5
871 870 -1.6281069999999998E5
871 871 3.2472039999999997E5
871 872 -1.6190969999999998E5
872 871 -1.6281069999999998E5
872 872 3.2472039999999997E5
872 873 -1.6190969999999998E5
873 872 -1.6281069999999998E5
873 873 3.2472039999999997E5
873 874 -1.6190969999999998E5
874 873 -1.6281069999999998E5
874 874 3.2472039999999997E5
874 875 -1.6190969999999998E5
875 874 -1.6281069999999998E5
875 875 3.2472039999999997E5
875 876 -1.6190969999999998E5
876 875 -1.6281069999999998E5
876 876 3.2472039999999997E5
876 877 -1.6190969999999998E5
877 876 -1.6281069999999998E5
877 877 3.2472039999999997E5
877 878 -1.6190969999999998E5
878 877 -1.6281069999999998E5
878 878 3.2472039999999997E5
878 879 -1.6190969999999998E5
879 878 -1.6281069999999998E5
879 879 3.2472039999999997E5
879 880 -1.6190969999999998E5
880 879 -1.6281069999999998E5
880 880 3.2472039999999997E5
880 881 -1.6190969999999998E5
881 880 -1.6281069999999998E5
881 881 3.2472039999999997E5
881 882 -1.6190969999999998E5
882 881 -1.6281069999999998E5
882 882 3.2472039999999997E5
882 883 -1.6190969999999998E5
883 882 -1.6281069999999998E5
883 883 3.2472039999999997E5
883 884 -1.6190969999999998E5
884 883 -1.6281069999999998E5
884 884 3.2472039999999997E5
884 885 -1.6190969999999998E5
885 884 -1.6281069999999998E5
885 885 3.2472039999999997E5
885 886 -1.6190969999999998E5
886 885 -1.6281069999999998E5
886 886 3.2472039999999997E5
886 887 -1.6190969999999998E5
887 886 -1.6281069999999998E5
887 887 3.2472039999999997E5
887 888 -1.6190969999999998E5
888 887 -1.6281069999999998E5
888 888 3.2472039999999997E5
888 889 -1.6190969999999998E5
889 888 -1.6281069999999998E5
889 889 3.2472039999999997E5
889 890 -1.6190969999999998E5
890 889 -1.6281069999999998E5
890 890 3.2472039999999997E5
890 891 -1.6190969999999998E5
891 890 -1.6281069999999998E5
891 891 3.2472039999999997E5
891 892 -1.6190969999999998E5
892 891 -1.6281069999999998E5
892 892 3.2472039999999997E5
892 893 -1.6190969999999998E5
893 892 -1.6281069999999998E5
893 893 3.2472039999999997E5
893 894 -1.6190969999999998E5
894 893 -1.6281069999999998E5
894 894 3.2472039999999997E5
894 895 -1.6190969999999998E5
895 894 -1.6281069999999998E5
895 895 3.2472039999999997E5
895 896 -1.6190969999999998E5
896 895 -1.6281069999999998E5
896 896 3.2472039999999997E5
896 897 -1.6190969999999998E5
897 896 -1.6281069999999998E5
897 897 3.2472039999999997E5
897 898 -1.6190969999999998E5
898 897 -1.6281069999999998E5
898 898 3.2472039999999997E5
898 899 -1.6190969999999998E5
899 898 -1.6281069999999998E5
899 899 3.2472039999999997E5
899 900 -1.6190969999999998E5
900 899 -1.6281069999999998E5
900 900 3.2472039999999997E5
