%%MatrixMarket matrix coordinate real general
% 1D convection-diffusion (-eps*u'' + beta*u' = f), central FD, n=500, eps=0.1, beta=1.0, kappa~=28792
500 500 1498
1 1 5.0200200000000004E4
1 2 -2.4849600000000002E4
2 1 -2.5350600000000002E4
2 2 5.0200200000000004E4
2 3 -2.4849600000000002E4
3 2 -2.5350600000000002E4
3 3 5.0200200000000004E4
3 4 -2.4849600000000002E4
4 3 -2.5350600000000002E4
4 4 5.0200200000000004E4
4 5 -2.4849600000000002E4
5 4 -2.5350600000000002E4
5 5 5.0200200000000004E4
5 6 -2.4849600000000002E4
6 5 -2.5350600000000002E4
6 6 5.0200200000000004E4
6 7 -2.4849600000000002E4
7 6 -2.5350600000000002E4
7 7 5.0200200000000004E4
7 8 -2.4849600000000002E4
8 7 -2.5350600000000002E4
8 8 5.0200200000000004E4
8 9 -2.4849600000000002E4
9 8 -2.5350600000000002E4
9 9 5.0200200000000004E4
9 10 -2.4849600000000002E4
10 9 -2.5350600000000002E4
10 10 5.0200200000000004E4
10 11 -2.4849600000000002E4
11 10 -2.5350600000000002E4
11 11 5.0200200000000004E4
11 12 -2.4849600000000002E4
12 11 -2.5350600000000002E4
12 12 5.0200200000000004E4
12 13 -2.4849600000000002E4
13 12 -2.5350600000000002E4
13 13 5.0200200000000004E4
13 14 -2.4849600000000002E4
14 13 -2.5350600000000002E4
14 14 5.0200200000000004E4
14 15 -2.4849600000000002E4
15 14 -2.5350600000000002E4
15 15 5.0200200000000004E4
15 16 -2.4849600000000002E4
16 15 -2.5350600000000002E4
16 16 5.0200200000000004E4
16 17 -2.4849600000000002E4
17 16 -2.5350600000000002E4
17 17 5.0200200000000004E4
17 18 -2.4849600000000002E4
18 17 -2.5350600000000002E4
18 18 5.0200200000000004E4
18 19 -2.4849600000000002E4
19 18 -2.5350600000000002E4
19 19 5.0200200000000004E4
19 20 -2.4849600000000002E4
20 19 -2.5350600000000002E4
20 20 5.0200200000000004E4
20 21 -2.4849600000000002E4
21 20 -2.5350600000000002E4
21 21 5.0200200000000004E4
21 22 -2.4849600000000002E4
22 21 -2.5350600000000002E4
22 22 5.0200200000000004E4
22 23 -2.4849600000000002E4
23 22 -2.5350600000000002E4
23 23 5.0200200000000004E4
23 24 -2.4849600000000002E4
24 23 -2.5350600000000002E4
24 24 5.0200200000000004E4
24 25 -2.4849600000000002E4
25 24 -2.5350600000000002E4
25 25 5.0200200000000004E4
25 26 -2.4849600000000002E4
26 25 -2.5350600000000002E4
26 26 5.0200200000000004E4
26 27 -2.4849600000000002E4
27 26 -2.5350600000000002E4
27 27 5.0200200000000004E4
27 28 -2.4849600000000002E4
28 27 -2.5350600000000002E4
28 28 5.0200200000000004E4
28 29 -2.4849600000000002E4
29 28 -2.5350600000000002E4
29 29 5.0200200000000004E4
29 30 -2.4849600000000002E4
30 29 -2.5350600000000002E4
30 30 5.0200200000000004E4
30 31 -2.4849600000000002E4
31 30 -2.5350600000000002E4
31 31 5.0200200000000004E4
31 32 -2.4849600000000002E4
32 31 -2.5350600000000002E4
32 32 5.0200200000000004E4
32 33 -2.4849600000000002E4
33 32 -2.5350600000000002E4
33 33 5.0200200000000004E4
33 34 -2.4849600000000002E4
34 33 -2.5350600000000002E4
34 34 5.0200200000000004E4
34 35 -2.4849600000000002E4
35 34 -2.5350600000000002E4
35 35 5.0200200000000004E4
35 36 -2.4849600000000002E4
36 35 -2.5350600000000002E4
36 36 5.0200200000000004E4
36 37 -2.4849600000000002E4
37 36 -2.5350600000000002E4
37 37 5.0200200000000004E4
37 38 -2.4849600000000002E4
38 37 -2.5350600000000002E4
38 38 5.0200200000000004E4
38 39 -2.4849600000000002E4
39 38 -2.5350600000000002E4
39 39 5.0200200000000004E4
39 40 -2.4849600000000002E4
40 39 -2.5350600000000002E4
40 40 5.0200200000000004E4
40 41 -2.4849600000000002E4
41 40 -2.5350600000000002E4
41 41 5.0200200000000004E4
41 42 -2.4849600000000002E4
42 41 -2.5350600000000002E4
42 42 5.0200200000000004E4
42 43 -2.4849600000000002E4
43 42 -2.5350600000000002E4
43 43 5.0200200000000004E4
43 44 -2.4849600000000002E4
44 43 -2.5350600000000002E4
44 44 5.0200200000000004E4
44 45 -2.4849600000000002E4
45 44 -2.5350600000000002E4
45 45 5.0200200000000004E4
45 46 -2.4849600000000002E4
46 45 -2.5350600000000002E4
46 46 5.0200200000000004E4
46 47 -2.4849600000000002E4
47 46 -2.5350600000000002E4
47 47 5.0200200000000004E4
47 48 -2.4849600000000002E4
48 47 -2.5350600000000002E4
48 48 5.0200200000000004E4
48 49 -2.4849600000000002E4
49 48 -2.5350600000000002E4
49 49 5.0200200000000004E4
49 50 -2.4849600000000002E4
50 49 -2.5350600000000002E4
50 50 5.0200200000000004E4
50 51 -2.4849600000000002E4
51 50 -2.5350600000000002E4
51 51 5.0200200000000004E4
51 52 -2.4849600000000002E4
52 51 -2.5350600000000002E4
52 52 5.0200200000000004E4
52 53 -2.4849600000000002E4
53 52 -2.5350600000000002E4
53 53 5.0200200000000004E4
53 54 -2.4849600000000002E4
54 53 -2.5350600000000002E4
54 54 5.0200200000000004E4
54 55 -2.4849600000000002E4
55 54 -2.5350600000000002E4
55 55 5.0200200000000004E4
55 56 -2.4849600000000002E4
56 55 -2.5350600000000002E4
56 56 5.0200200000000004E4
56 57 -2.4849600000000002E4
57 56 -2.5350600000000002E4
57 57 5.0200200000000004E4
57 58 -2.4849600000000002E4
58 57 -2.5350600000000002E4
58 58 5.0200200000000004E4
58 59 -2.4849600000000002E4
59 58 -2.5350600000000002E4
59 59 5.0200200000000004E4
59 60 -2.4849600000000002E4
60 59 -2.5350600000000002E4
60 60 5.0200200000000004E4
60 61 -2.4849600000000002E4
61 60 -2.5350600000000002E4
61 61 5.0200200000000004E4
61 62 -2.4849600000000002E4
62 61 -2.5350600000000002E4
62 62 5.0200200000000004E4
62 63 -2.4849600000000002E4
63 62 -2.5350600000000002E4
63 63 5.0200200000000004E4
63 64 -2.4849600000000002E4
64 63 -2.5350600000000002E4
64 64 5.0200200000000004E4
64 65 -2.4849600000000002E4
65 64 -2.5350600000000002E4
65 65 5.0200200000000004E4
65 66 -2.4849600000000002E4
66 65 -2.5350600000000002E4
66 66 5.0200200000000004E4
66 67 -2.4849600000000002E4
67 66 -2.5350600000000002E4
67 67 5.0200200000000004E4
67 68 -2.4849600000000002E4
68 67 -2.5350600000000002E4
68 68 5.0200200000000004E4
68 69 -2.4849600000000002E4
69 68 -2.5350600000000002E4
69 69 5.0200200000000004E4
69 70 -2.4849600000000002E4
70 69 -2.5350600000000002E4
70 70 5.0200200000000004E4
70 71 -2.4849600000000002E4
71 70 -2.5350600000000002E4
71 71 5.0200200000000004E4
71 72 -2.4849600000000002E4
72 71 -2.5350600000000002E4
72 72 5.0200200000000004E4
72 73 -2.4849600000000002E4
73 72 -2.5350600000000002E4
73 73 5.0200200000000004E4
73 74 -2.4849600000000002E4
74 73 -2.5350600000000002E4
74 74 5.0200200000000004E4
74 75 -2.4849600000000002E4
75 74 -2.5350600000000002E4
75 75 5.0200200000000004E4
75 76 -2.4849600000000002E4
76 75 -2.5350600000000002E4
76 76 5.0200200000000004E4
76 77 -2.4849600000000002E4
77 76 -2.5350600000000002E4
77 77 5.0200200000000004E4
77 78 -2.4849600000000002E4
78 77 -2.5350600000000002E4
78 78 5.0200200000000004E4
78 79 -2.4849600000000002E4
79 78 -2.5350600000000002E4
79 79 5.0200200000000004E4
79 80 -2.4849600000000002E4
80 79 -2.5350600000000002E4
80 80 5.0200200000000004E4
80 81 -2.4849600000000002E4
81 80 -2.5350600000000002E4
81 81 5.0200200000000004E4
81 82 -2.4849600000000002E4
82 81 -2.5350600000000002E4
82 82 5.0200200000000004E4
82 83 -2.4849600000000002E4
83 82 -2.5350600000000002E4
83 83 5.0200200000000004E4
83 84 -2.4849600000000002E4
84 83 -2.5350600000000002E4
84 84 5.0200200000000004E4
84 85 -2.4849600000000002E4
85 84 -2.5350600000000002E4
85 85 5.0200200000000004E4
85 86 -2.4849600000000002E4
86 85 -2.5350600000000002E4
86 86 5.0200200000000004E4
86 87 -2.4849600000000002E4
87 86 -2.5350600000000002E4
87 87 5.0200200000000004E4
87 88 -2.4849600000000002E4
88 87 -2.5350600000000002E4
88 88 5.0200200000000004E4
88 89 -2.4849600000000002E4
89 88 -2.5350600000000002E4
89 89 5.0200200000000004E4
89 90 -2.4849600000000002E4
90 89 -2.5350600000000002E4
90 90 5.0200200000000004E4
90 91 -2.4849600000000002E4
91 90 -2.5350600000000002E4
91 91 5.0200200000000004E4
91 92 -2.4849600000000002E4
92 91 -2.5350600000000002E4
92 92 5.0200200000000004E4
92 93 -2.4849600000000002E4
93 92 -2.5350600000000002E4
93 93 5.0200200000000004E4
93 94 -2.4849600000000002E4
94 93 -2.5350600000000002E4
94 94 5.0200200000000004E4
94 95 -2.4849600000000002E4
95 94 -2.5350600000000002E4
95 95 5.0200200000000004E4
95 96 -2.4849600000000002E4
96 95 -2.5350600000000002E4
96 96 5.0200200000000004E4
96 97 -2.4849600000000002E4
97 96 -2.5350600000000002E4
97 97 5.0200200000000004E4
97 98 -2.4849600000000002E4
98 97 -2.5350600000000002E4
98 98 5.0200200000000004E4
98 99 -2.4849600000000002E4
99 98 -2.5350600000000002E4
99 99 5.0200200000000004E4
99 100 -2.4849600000000002E4
100 99 -2.5350600000000002E4
100 100 5.0200200000000004E4
100 101 -2.4849600000000002E4
101 100 -2.5350600000000002E4
101 101 5.0200200000000004E4
101 102 -2.4849600000000002E4
102 101 -2.5350600000000002E4
102 102 5.0200200000000004E4
102 103 -2.4849600000000002E4
103 102 -2.5350600000000002E4
103 103 5.0200200000000004E4
103 104 -2.4849600000000002E4
104 103 -2.5350600000000002E4
104 104 5.0200200000000004E4
104 105 -2.4849600000000002E4
105 104 -2.5350600000000002E4
105 105 5.0200200000000004E4
105 106 -2.4849600000000002E4
106 105 -2.5350600000000002E4
106 106 5.0200200000000004E4
106 107 -2.4849600000000002E4
107 106 -2.5350600000000002E4
107 107 5.0200200000000004E4
107 108 -2.4849600000000002E4
108 107 -2.5350600000000002E4
108 108 5.0200200000000004E4
108 109 -2.4849600000000002E4
109 108 -2.5350600000000002E4
109 109 5.0200200000000004E4
109 110 -2.4849600000000002E4
110 109 -2.5350600000000002E4
110 110 5.0200200000000004E4
110 111 -2.4849600000000002E4
111 110 -2.5350600000000002E4
111 111 5.0200200000000004E4
111 112 -2.4849600000000002E4
112 111 -2.5350600000000002E4
112 112 5.0200200000000004E4
112 113 -2.4849600000000002E4
113 112 -2.5350600000000002E4
113 113 5.0200200000000004E4
113 114 -2.4849600000000002E4
114 113 -2.5350600000000002E4
114 114 5.0200200000000004E4
114 115 -2.4849600000000002E4
115 114 -2.5350600000000002E4
115 115 5.0200200000000004E4
115 116 -2.4849600000000002E4
116 115 -2.5350600000000002E4
116 116 5.0200200000000004E4
116 117 -2.4849600000000002E4
117 116 -2.5350600000000002E4
117 117 5.0200200000000004E4
117 118 -2.4849600000000002E4
118 117 -2.5350600000000002E4
118 118 5.0200200000000004E4
118 119 -2.4849600000000002E4
119 118 -2.5350600000000002E4
119 119 5.0200200000000004E4
119 120 -2.4849600000000002E4
120 119 -2.5350600000000002E4
120 120 5.0200200000000004E4
120 121 -2.4849600000000002E4
121 120 -2.5350600000000002E4
121 121 5.0200200000000004E4
121 122 -2.4849600000000002E4
122 121 -2.5350600000000002E4
122 122 5.0200200000000004E4
122 123 -2.4849600000000002E4
123 122 -2.5350600000000002E4
123 123 5.0200200000000004E4
123 124 -2.4849600000000002E4
124 123 -2.5350600000000002E4
124 124 5.0200200000000004E4
124 125 -2.4849600000000002E4
125 124 -2.5350600000000002E4
125 125 5.0200200000000004E4
125 126 -2.4849600000000002E4
126 125 -2.5350600000000002E4
126 126 5.0200200000000004E4
126 127 -2.4849600000000002E4
127 126 -2.5350600000000002E4
127 127 5.0200200000000004E4
127 128 -2.4849600000000002E4
128 127 -2.5350600000000002E4
128 128 5.0200200000000004E4
128 129 -2.4849600000000002E4
129 128 -2.5350600000000002E4
129 129 5.0200200000000004E4
129 130 -2.4849600000000002E4
130 129 -2.5350600000000002E4
130 130 5.0200200000000004E4
130 131 -2.4849600000000002E4
131 130 -2.5350600000000002E4
131 131 5.0200200000000004E4
131 132 -2.4849600000000002E4
132 131 -2.5350600000000002E4
132 132 5.0200200000000004E4
132 133 -2.4849600000000002E4
133 132 -2.5350600000000002E4
133 133 5.0200200000000004E4
133 134 -2.4849600000000002E4
134 133 -2.5350600000000002E4
134 134 5.0200200000000004E4
134 135 -2.4849600000000002E4
135 134 -2.5350600000000002E4
135 135 5.0200200000000004E4
135 136 -2.4849600000000002E4
136 135 -2.5350600000000002E4
136 136 5.0200200000000004E4
136 137 -2.4849600000000002E4
137 136 -2.5350600000000002E4
137 137 5.0200200000000004E4
137 138 -2.4849600000000002E4
138 137 -2.5350600000000002E4
138 138 5.0200200000000004E4
138 139 -2.4849600000000002E4
139 138 -2.5350600000000002E4
139 139 5.0200200000000004E4
139 140 -2.4849600000000002E4
140 139 -2.5350600000000002E4
140 140 5.0200200000000004E4
140 141 -2.4849600000000002E4
141 140 -2.5350600000000002E4
141 141 5.0200200000000004E4
141 142 -2.4849600000000002E4
142 141 -2.5350600000000002E4
142 142 5.0200200000000004E4
142 143 -2.4849600000000002E4
143 142 -2.5350600000000002E4
143 143 5.0200200000000004E4
143 144 -2.4849600000000002E4
144 143 -2.5350600000000002E4
144 144 5.0200200000000004E4
144 145 -2.4849600000000002E4
145 144 -2.5350600000000002E4
145 145 5.0200200000000004E4
145 146 -2.4849600000000002E4
146 145 -2.5350600000000002E4
146 146 5.0200200000000004E4
146 147 -2.4849600000000002E4
147 146 -2.5350600000000002E4
147 147 5.0200200000000004E4
147 148 -2.4849600000000002E4
148 147 -2.5350600000000002E4
148 148 5.0200200000000004E4
148 149 -2.4849600000000002E4
149 148 -2.5350600000000002E4
149 149 5.0200200000000004E4
149 150 -2.4849600000000002E4
150 149 -2.5350600000000002E4
150 150 5.0200200000000004E4
150 151 -2.4849600000000002E4
151 150 -2.5350600000000002E4
151 151 5.0200200000000004E4
151 152 -2.4849600000000002E4
152 151 -2.5350600000000002E4
152 152 5.0200200000000004E4
152 153 -2.4849600000000002E4
153 152 -2.5350600000000002E4
153 153 5.0200200000000004E4
153 154 -2.4849600000000002E4
154 153 -2.5350600000000002E4
154 154 5.0200200000000004E4
154 155 -2.4849600000000002E4
155 154 -2.5350600000000002E4
155 155 5.0200200000000004E4
155 156 -2.4849600000000002E4
156 155 -2.5350600000000002E4
156 156 5.0200200000000004E4
156 157 -2.4849600000000002E4
157 156 -2.5350600000000002E4
157 157 5.0200200000000004E4
157 158 -2.4849600000000002E4
158 157 -2.5350600000000002E4
158 158 5.0200200000000004E4
158 159 -2.4849600000000002E4
159 158 -2.5350600000000002E4
159 159 5.0200200000000004E4
159 160 -2.4849600000000002E4
160 159 -2.5350600000000002E4
160 160 5.0200200000000004E4
160 161 -2.4849600000000002E4
161 160 -2.5350600000000002E4
161 161 5.0200200000000004E4
161 162 -2.4849600000000002E4
162 161 -2.5350600000000002E4
162 162 5.0200200000000004E4
162 163 -2.4849600000000002E4
163 162 -2.5350600000000002E4
163 163 5.0200200000000004E4
163 164 -2.4849600000000002E4
164 163 -2.5350600000000002E4
164 164 5.0200200000000004E4
164 165 -2.4849600000000002E4
165 164 -2.5350600000000002E4
165 165 5.0200200000000004E4
165 166 -2.4849600000000002E4
166 165 -2.5350600000000002E4
166 166 5.0200200000000004E4
166 167 -2.4849600000000002E4
167 166 -2.5350600000000002E4
167 167 5.0200200000000004E4
167 168 -2.4849600000000002E4
168 167 -2.5350600000000002E4
168 168 5.0200200000000004E4
168 169 -2.4849600000000002E4
169 168 -2.5350600000000002E4
169 169 5.0200200000000004E4
169 170 -2.4849600000000002E4
170 169 -2.5350600000000002E4
170 170 5.0200200000000004E4
170 171 -2.4849600000000002E4
171 170 -2.5350600000000002E4
171 171 5.0200200000000004E4
171 172 -2.4849600000000002E4
172 171 -2.5350600000000002E4
172 172 5.0200200000000004E4
172 173 -2.4849600000000002E4
173 172 -2.5350600000000002E4
173 173 5.0200200000000004E4
173 174 -2.4849600000000002E4
174 173 -2.5350600000000002E4
174 174 5.0200200000000004E4
174 175 -2.4849600000000002E4
175 174 -2.5350600000000002E4
175 175 5.0200200000000004E4
175 176 -2.4849600000000002E4
176 175 -2.5350600000000002E4
176 176 5.0200200000000004E4
176 177 -2.4849600000000002E4
177 176 -2.5350600000000002E4
177 177 5.0200200000000004E4
177 178 -2.4849600000000002E4
178 177 -2.5350600000000002E4
178 178 5.0200200000000004E4
178 179 -2.4849600000000002E4
179 178 -2.5350600000000002E4
179 179 5.0200200000000004E4
179 180 -2.4849600000000002E4
180 179 -2.5350600000000002E4
180 180 5.0200200000000004E4
180 181 -2.4849600000000002E4
181 180 -2.5350600000000002E4
181 181 5.0200200000000004E4
181 182 -2.4849600000000002E4
182 181 -2.5350600000000002E4
182 182 5.0200200000000004E4
182 183 -2.4849600000000002E4
183 182 -2.5350600000000002E4
183 183 5.0200200000000004E4
183 184 -2.4849600000000002E4
184 183 -2.5350600000000002E4
184 184 5.0200200000000004E4
184 185 -2.4849600000000002E4
185 184 -2.5350600000000002E4
185 185 5.0200200000000004E4
185 186 -2.4849600000000002E4
186 185 -2.5350600000000002E4
186 186 5.0200200000000004E4
186 187 -2.4849600000000002E4
187 186 -2.5350600000000002E4
187 187 5.0200200000000004E4
187 188 -2.4849600000000002E4
188 187 -2.5350600000000002E4
188 188 5.0200200000000004E4
188 189 -2.4849600000000002E4
189 188 -2.5350600000000002E4
189 189 5.0200200000000004E4
189 190 -2.4849600000000002E4
190 189 -2.5350600000000002E4
190 190 5.0200200000000004E4
190 191 -2.4849600000000002E4
191 190 -2.5350600000000002E4
191 191 5.0200200000000004E4
191 192 -2.4849600000000002E4
192 191 -2.5350600000000002E4
192 192 5.0200200000000004E4
192 193 -2.4849600000000002E4
193 192 -2.5350600000000002E4
193 193 5.0200200000000004E4
193 194 -2.4849600000000002E4
194 193 -2.5350600000000002E4
194 194 5.0200200000000004E4
194 195 -2.4849600000000002E4
195 194 -2.5350600000000002E4
195 195 5.0200200000000004E4
195 196 -2.4849600000000002E4
196 195 -2.5350600000000002E4
196 196 5.0200200000000004E4
196 197 -2.4849600000000002E4
197 196 -2.5350600000000002E4
197 197 5.0200200000000004E4
197 198 -2.4849600000000002E4
198 197 -2.5350600000000002E4
198 198 5.0200200000000004E4
198 199 -2.4849600000000002E4
199 198 -2.5350600000000002E4
199 199 5.0200200000000004E4
199 200 -2.4849600000000002E4
200 199 -2.5350600000000002E4
200 200 5.0200200000000004E4
200 201 -2.4849600000000002E4
201 200 -2.5350600000000002E4
201 201 5.0200200000000004E4
201 202 -2.4849600000000002E4
202 201 -2.5350600000000002E4
202 202 5.0200200000000004E4
202 203 -2.4849600000000002E4
203 202 -2.5350600000000002E4
203 203 5.0200200000000004E4
203 204 -2.4849600000000002E4
204 203 -2.5350600000000002E4
204 204 5.0200200000000004E4
204 205 -2.4849600000000002E4
205 204 -2.5350600000000002E4
205 205 5.0200200000000004E4
205 206 -2.4849600000000002E4
206 205 -2.5350600000000002E4
206 206 5.0200200000000004E4
206 207 -2.4849600000000002E4
207 206 -2.5350600000000002E4
207 207 5.0200200000000004E4
207 208 -2.4849600000000002E4
208 207 -2.5350600000000002E4
208 208 5.0200200000000004E4
208 209 -2.4849600000000002E4
209 208 -2.5350600000000002E4
209 209 5.0200200000000004E4
209 210 -2.4849600000000002E4
210 209 -2.5350600000000002E4
210 210 5.0200200000000004E4
210 211 -2.4849600000000002E4
211 210 -2.5350600000000002E4
211 211 5.0200200000000004E4
211 212 -2.4849600000000002E4
212 211 -2.5350600000000002E4
212 212 5.0200200000000004E4
212 213 -2.4849600000000002E4
213 212 -2.5350600000000002E4
213 213 5.0200200000000004E4
213 214 -2.4849600000000002E4
214 213 -2.5350600000000002E4
214 214 5.0200200000000004E4
214 215 -2.4849600000000002E4
215 214 -2.5350600000000002E4
215 215 5.0200200000000004E4
215 216 -2.4849600000000002E4
216 215 -2.5350600000000002E4
216 216 5.0200200000000004E4
216 217 -2.4849600000000002E4
217 216 -2.5350600000000002E4
217 217 5.0200200000000004E4
217 218 -2.4849600000000002E4
218 217 -2.5350600000000002E4
218 218 5.0200200000000004E4
218 219 -2.4849600000000002E4
219 218 -2.5350600000000002E4
219 219 5.0200200000000004E4
219 220 -2.4849600000000002E4
220 219 -2.5350600000000002E4
220 220 5.0200200000000004E4
220 221 -2.4849600000000002E4
221 220 -2.5350600000000002E4
221 221 5.0200200000000004E4
221 222 -2.4849600000000002E4
222 221 -2.5350600000000002E4
222 222 5.0200200000000004E4
222 223 -2.4849600000000002E4
223 222 -2.5350600000000002E4
223 223 5.0200200000000004E4
223 224 -2.4849600000000002E4
224 223 -2.5350600000000002E4
224 224 5.0200200000000004E4
224 225 -2.4849600000000002E4
225 224 -2.5350600000000002E4
225 225 5.0200200000000004E4
225 226 -2.4849600000000002E4
226 225 -2.5350600000000002E4
226 226 5.0200200000000004E4
226 227 -2.4849600000000002E4
227 226 -2.5350600000000002E4
227 227 5.0200200000000004E4
227 228 -2.4849600000000002E4
228 227 -2.5350600000000002E4
228 228 5.0200200000000004E4
228 229 -2.4849600000000002E4
229 228 -2.5350600000000002E4
229 229 5.0200200000000004E4
229 230 -2.4849600000000002E4
230 229 -2.5350600000000002E4
230 230 5.0200200000000004E4
230 231 -2.4849600000000002E4
231 230 -2.5350600000000002E4
231 231 5.0200200000000004E4
231 232 -2.4849600000000002E4
232 231 -2.5350600000000002E4
232 232 5.0200200000000004E4
232 233 -2.4849600000000002E4
233 232 -2.5350600000000002E4
233 233 5.0200200000000004E4
233 234 -2.4849600000000002E4
234 233 -2.5350600000000002E4
234 234 5.0200200000000004E4
234 235 -2.4849600000000002E4
235 234 -2.5350600000000002E4
235 235 5.0200200000000004E4
235 236 -2.4849600000000002E4
236 235 -2.5350600000000002E4
236 236 5.0200200000000004E4
236 237 -2.4849600000000002E4
237 236 -2.5350600000000002E4
237 237 5.0200200000000004E4
237 238 -2.4849600000000002E4
238 237 -2.5350600000000002E4
238 238 5.0200200000000004E4
238 239 -2.4849600000000002E4
239 238 -2.5350600000000002E4
239 239 5.0200200000000004E4
239 240 -2.4849600000000002E4
240 239 -2.5350600000000002E4
240 240 5.0200200000000004E4
240 241 -2.4849600000000002E4
241 240 -2.5350600000000002E4
241 241 5.0200200000000004E4
241 242 -2.4849600000000002E4
242 241 -2.5350600000000002E4
242 242 5.0200200000000004E4
242 243 -2.4849600000000002E4
243 242 -2.5350600000000002E4
243 243 5.0200200000000004E4
243 244 -2.4849600000000002E4
244 243 -2.5350600000000002E4
244 244 5.0200200000000004E4
244 245 -2.4849600000000002E4
245 244 -2.5350600000000002E4
245 245 5.0200200000000004E4
245 246 -2.4849600000000002E4
246 245 -2.5350600000000002E4
246 246 5.0200200000000004E4
246 247 -2.4849600000000002E4
247 246 -2.5350600000000002E4
247 247 5.0200200000000004E4
247 248 -2.4849600000000002E4
248 247 -2.5350600000000002E4
248 248 5.0200200000000004E4
248 249 -2.4849600000000002E4
249 248 -2.5350600000000002E4
249 249 5.0200200000000004E4
249 250 -2.4849600000000002E4
250 249 -2.5350600000000002E4
250 250 5.0200200000000004E4
250 251 -2.4849600000000002E4
251 250 -2.5350600000000002E4
251 251 5.0200200000000004E4
251 252 -2.4849600000000002E4
252 251 -2.5350600000000002E4
252 252 5.0200200000000004E4
252 253 -2.4849600000000002E4
253 252 -2.5350600000000002E4
253 253 5.0200200000000004E4
253 254 -2.4849600000000002E4
254 253 -2.5350600000000002E4
254 254 5.0200200000000004E4
254 255 -2.4849600000000002E4
255 254 -2.5350600000000002E4
255 255 5.0200200000000004E4
255 256 -2.4849600000000002E4
256 255 -2.5350600000000002E4
256 256 5.0200200000000004E4
256 257 -2.4849600000000002E4
257 256 -2.5350600000000002E4
257 257 5.0200200000000004E4
257 258 -2.4849600000000002E4
258 257 -2.5350600000000002E4
258 258 5.0200200000000004E4
258 259 -2.4849600000000002E4
259 258 -2.5350600000000002E4
259 259 5.0200200000000004E4
259 260 -2.4849600000000002E4
260 259 -2.5350600000000002E4
260 260 5.0200200000000004E4
260 261 -2.4849600000000002E4
261 260 -2.5350600000000002E4
261 261 5.0200200000000004E4
261 262 -2.4849600000000002E4
262 261 -2.5350600000000002E4
262 262 5.0200200000000004E4
262 263 -2.4849600000000002E4
263 262 -2.5350600000000002E4
263 263 5.0200200000000004E4
263 264 -2.4849600000000002E4
264 263 -2.5350600000000002E4
264 264 5.0200200000000004E4
264 265 -2.4849600000000002E4
265 264 -2.5350600000000002E4
265 265 5.0200200000000004E4
265 266 -2.4849600000000002E4
266 265 -2.5350600000000002E4
266 266 5.0200200000000004E4
266 267 -2.4849600000000002E4
267 266 -2.5350600000000002E4
267 267 5.0200200000000004E4
267 268 -2.4849600000000002E4
268 267 -2.5350600000000002E4
268 268 5.0200200000000004E4
268 269 -2.4849600000000002E4
269 268 -2.5350600000000002E4
269 269 5.0200200000000004E4
269 270 -2.4849600000000002E4
270 269 -2.5350600000000002E4
270 270 5.0200200000000004E4
270 271 -2.4849600000000002E4
271 270 -2.5350600000000002E4
271 271 5.0200200000000004E4
271 272 -2.4849600000000002E4
272 271 -2.5350600000000002E4
272 272 5.0200200000000004E4
272 273 -2.4849600000000002E4
273 272 -2.5350600000000002E4
273 273 5.0200200000000004E4
273 274 -2.4849600000000002E4
274 273 -2.5350600000000002E4
274 274 5.0200200000000004E4
274 275 -2.4849600000000002E4
275 274 -2.5350600000000002E4
275 275 5.0200200000000004E4
275 276 -2.4849600000000002E4
276 275 -2.5350600000000002E4
276 276 5.0200200000000004E4
276 277 -2.4849600000000002E4
277 276 -2.5350600000000002E4
277 277 5.0200200000000004E4
277 278 -2.4849600000000002E4
278 277 -2.5350600000000002E4
278 278 5.0200200000000004E4
278 279 -2.4849600000000002E4
279 278 -2.5350600000000002E4
279 279 5.0200200000000004E4
279 280 -2.4849600000000002E4
280 279 -2.5350600000000002E4
280 280 5.0200200000000004E4
280 281 -2.4849600000000002E4
281 280 -2.5350600000000002E4
281 281 5.0200200000000004E4
281 282 -2.4849600000000002E4
282 281 -2.5350600000000002E4
282 282 5.0200200000000004E4
282 283 -2.4849600000000002E4
283 282 -2.5350600000000002E4
283 283 5.0200200000000004E4
283 284 -2.4849600000000002E4
284 283 -2.5350600000000002E4
284 284 5.0200200000000004E4
284 285 -2.4849600000000002E4
285 284 -2.5350600000000002E4
285 285 5.0200200000000004E4
285 286 -2.4849600000000002E4
286 285 -2.5350600000000002E4
286 286 5.0200200000000004E4
286 287 -2.4849600000000002E4
287 286 -2.5350600000000002E4
287 287 5.0200200000000004E4
287 288 -2.4849600000000002E4
288 287 -2.5350600000000002E4
288 288 5.0200200000000004E4
288 289 -2.4849600000000002E4
289 288 -2.5350600000000002E4
289 289 5.0200200000000004E4
289 290 -2.4849600000000002E4
290 289 -2.5350600000000002E4
290 290 5.0200200000000004E4
290 291 -2.4849600000000002E4
291 290 -2.5350600000000002E4
291 291 5.0200200000000004E4
291 292 -2.4849600000000002E4
292 291 -2.5350600000000002E4
292 292 5.0200200000000004E4
292 293 -2.4849600000000002E4
293 292 -2.5350600000000002E4
293 293 5.0200200000000004E4
293 294 -2.4849600000000002E4
294 293 -2.5350600000000002E4
294 294 5.0200200000000004E4
294 295 -2.4849600000000002E4
295 294 -2.5350600000000002E4
295 295 5.0200200000000004E4
295 296 -2.4849600000000002E4
296 295 -2.5350600000000002E4
296 296 5.0200200000000004E4
296 297 -2.4849600000000002E4
297 296 -2.5350600000000002E4
297 297 5.0200200000000004E4
297 298 -2.4849600000000002E4
298 297 -2.5350600000000002E4
298 298 5.0200200000000004E4
298 299 -2.4849600000000002E4
299 298 -2.5350600000000002E4
299 299 5.0200200000000004E4
299 300 -2.4849600000000002E4
300 299 -2.5350600000000002E4
300 300 5.0200200000000004E4
300 301 -2.4849600000000002E4
301 300 -2.5350600000000002E4
301 301 5.0200200000000004E4
301 302 -2.4849600000000002E4
302 301 -2.5350600000000002E4
302 302 5.0200200000000004E4
302 303 -2.4849600000000002E4
303 302 -2.5350600000000002E4
303 303 5.0200200000000004E4
303 304 -2.4849600000000002E4
304 303 -2.5350600000000002E4
304 304 5.0200200000000004E4
304 305 -2.4849600000000002E4
305 304 -2.5350600000000002E4
305 305 5.0200200000000004E4
305 306 -2.4849600000000002E4
306 305 -2.5350600000000002E4
306 306 5.0200200000000004E4
306 307 -2.4849600000000002E4
307 306 -2.5350600000000002E4
307 307 5.0200200000000004E4
307 308 -2.4849600000000002E4
308 307 -2.5350600000000002E4
308 308 5.0200200000000004E4
308 309 -2.4849600000000002E4
309 308 -2.5350600000000002E4
309 309 5.0200200000000004E4
309 310 -2.4849600000000002E4
310 309 -2.5350600000000002E4
310 310 5.0200200000000004E4
310 311 -2.4849600000000002E4
311 310 -2.5350600000000002E4
311 311 5.0200200000000004E4
311 312 -2.4849600000000002E4
312 311 -2.5350600000000002E4
312 312 5.0200200000000004E4
312 313 -2.4849600000000002E4
313 312 -2.5350600000000002E4
313 313 5.0200200000000004E4
313 314 -2.4849600000000002E4
314 313 -2.5350600000000002E4
314 314 5.0200200000000004E4
314 315 -2.4849600000000002E4
315 314 -2.5350600000000002E4
315 315 5.0200200000000004E4
315 316 -2.4849600000000002E4
316 315 -2.5350600000000002E4
316 316 5.0200200000000004E4
316 317 -2.4849600000000002E4
317 316 -2.5350600000000002E4
317 317 5.0200200000000004E4
317 318 -2.4849600000000002E4
318 317 -2.5350600000000002E4
318 318 5.0200200000000004E4
318 319 -2.4849600000000002E4
319 318 -2.5350600000000002E4
319 319 5.0200200000000004E4
319 320 -2.4849600000000002E4
320 319 -2.5350600000000002E4
320 320 5.0200200000000004E4
320 321 -2.4849600000000002E4
321 320 -2.5350600000000002E4
321 321 5.0200200000000004E4
321 322 -2.4849600000000002E4
322 321 -2.5350600000000002E4
322 322 5.0200200000000004E4
322 323 -2.4849600000000002E4
323 322 -2.5350600000000002E4
323 323 5.0200200000000004E4
323 324 -2.4849600000000002E4
324 323 -2.5350600000000002E4
324 324 5.0200200000000004E4
324 325 -2.4849600000000002E4
325 324 -2.5350600000000002E4
325 325 5.0200200000000004E4
325 326 -2.4849600000000002E4
326 325 -2.5350600000000002E4
326 326 5.0200200000000004E4
326 327 -2.4849600000000002E4
327 326 -2.5350600000000002E4
327 327 5.0200200000000004E4
327 328 -2.4849600000000002E4
328 327 -2.5350600000000002E4
328 328 5.0200200000000004E4
328 329 -2.4849600000000002E4
329 328 -2.5350600000000002E4
329 329 5.0200200000000004E4
329 330 -2.4849600000000002E4
330 329 -2.5350600000000002E4
330 330 5.0200200000000004E4
330 331 -2.4849600000000002E4
331 330 -2.5350600000000002E4
331 331 5.0200200000000004E4
331 332 -2.4849600000000002E4
332 331 -2.5350600000000002E4
332 332 5.0200200000000004E4
332 333 -2.4849600000000002E4
333 332 -2.5350600000000002E4
333 333 5.0200200000000004E4
333 334 -2.4849600000000002E4
334 333 -2.5350600000000002E4
334 334 5.0200200000000004E4
334 335 -2.4849600000000002E4
335 334 -2.5350600000000002E4
335 335 5.0200200000000004E4
335 336 -2.4849600000000002E4
336 335 -2.5350600000000002E4
336 336 5.0200200000000004E4
336 337 -2.4849600000000002E4
337 336 -2.5350600000000002E4
337 337 5.0200200000000004E4
337 338 -2.4849600000000002E4
338 337 -2.5350600000000002E4
338 338 5.0200200000000004E4
338 339 -2.4849600000000002E4
339 338 -2.5350600000000002E4
339 339 5.0200200000000004E4
339 340 -2.4849600000000002E4
340 339 -2.5350600000000002E4
340 340 5.0200200000000004E4
340 341 -2.4849600000000002E4
341 340 -2.5350600000000002E4
341 341 5.0200200000000004E4
341 342 -2.4849600000000002E4
342 341 -2.5350600000000002E4
342 342 5.0200200000000004E4
342 343 -2.4849600000000002E4
343 342 -2.5350600000000002E4
343 343 5.0200200000000004E4
343 344 -2.4849600000000002E4
344 343 -2.5350600000000002E4
344 344 5.0200200000000004E4
344 345 -2.4849600000000002E4
345 344 -2.5350600000000002E4
345 345 5.0200200000000004E4
345 346 -2.4849600000000002E4
346 345 -2.5350600000000002E4
346 346 5.0200200000000004E4
346 347 -2.4849600000000002E4
347 346 -2.5350600000000002E4
347 347 5.0200200000000004E4
347 348 -2.4849600000000002E4
348 347 -2.5350600000000002E4
348 348 5.0200200000000004E4
348 349 -2.4849600000000002E4
349 348 -2.5350600000000002E4
349 349 5.0200200000000004E4
349 350 -2.4849600000000002E4
350 349 -2.5350600000000002E4
350 350 5.0200200000000004E4
350 351 -2.4849600000000002E4
351 350 -2.5350600000000002E4
351 351 5.0200200000000004E4
351 352 -2.4849600000000002E4
352 351 -2.5350600000000002E4
352 352 5.0200200000000004E4
352 353 -2.4849600000000002E4
353 352 -2.5350600000000002E4
353 353 5.0200200000000004E4
353 354 -2.4849600000000002E4
354 353 -2.5350600000000002E4
354 354 5.0200200000000004E4
354 355 -2.4849600000000002E4
355 354 -2.5350600000000002E4
355 355 5.0200200000000004E4
355 356 -2.4849600000000002E4
356 355 -2.5350600000000002E4
356 356 5.0200200000000004E4
356 357 -2.4849600000000002E4
357 356 -2.5350600000000002E4
357 357 5.0200200000000004E4
357 358 -2.4849600000000002E4
358 357 -2.5350600000000002E4
358 358 5.0200200000000004E4
358 359 -2.4849600000000002E4
359 358 -2.5350600000000002E4
359 359 5.0200200000000004E4
359 360 -2.4849600000000002E4
360 359 -2.5350600000000002E4
360 360 5.0200200000000004E4
360 361 -2.4849600000000002E4
361 360 -2.5350600000000002E4
361 361 5.0200200000000004E4
361 362 -2.4849600000000002E4
362 361 -2.5350600000000002E4
362 362 5.0200200000000004E4
362 363 -2.4849600000000002E4
363 362 -2.5350600000000002E4
363 363 5.0200200000000004E4
363 364 -2.4849600000000002E4
364 363 -2.5350600000000002E4
364 364 5.0200200000000004E4
364 365 -2.4849600000000002E4
365 364 -2.5350600000000002E4
365 365 5.0200200000000004E4
365 366 -2.4849600000000002E4
366 365 -2.5350600000000002E4
366 366 5.0200200000000004E4
366 367 -2.4849600000000002E4
367 366 -2.5350600000000002E4
367 367 5.0200200000000004E4
367 368 -2.4849600000000002E4
368 367 -2.5350600000000002E4
368 368 5.0200200000000004E4
368 369 -2.4849600000000002E4
369 368 -2.5350600000000002E4
369 369 5.0200200000000004E4
369 370 -2.4849600000000002E4
370 369 -2.5350600000000002E4
370 370 5.0200200000000004E4
370 371 -2.4849600000000002E4
371 370 -2.5350600000000002E4
371 371 5.0200200000000004E4
371 372 -2.4849600000000002E4
372 371 -2.5350600000000002E4
372 372 5.0200200000000004E4
372 373 -2.4849600000000002E4
373 372 -2.5350600000000002E4
373 373 5.0200200000000004E4
373 374 -2.4849600000000002E4
374 373 -2.5350600000000002E4
374 374 5.0200200000000004E4
374 375 -2.4849600000000002E4
375 374 -2.5350600000000002E4
375 375 5.0200200000000004E4
375 376 -2.4849600000000002E4
376 375 -2.5350600000000002E4
376 376 5.0200200000000004E4
376 377 -2.4849600000000002E4
377 376 -2.5350600000000002E4
377 377 5.0200200000000004E4
377 378 -2.4849600000000002E4
378 377 -2.5350600000000002E4
378 378 5.0200200000000004E4
378 379 -2.4849600000000002E4
379 378 -2.5350600000000002E4
379 379 5.0200200000000004E4
379 380 -2.4849600000000002E4
380 379 -2.5350600000000002E4
380 380 5.0200200000000004E4
380 381 -2.4849600000000002E4
381 380 -2.5350600000000002E4
381 381 5.0200200000000004E4
381 382 -2.4849600000000002E4
382 381 -2.5350600000000002E4
382 382 5.0200200000000004E4
382 383 -2.4849600000000002E4
383 382 -2.5350600000000002E4
383 383 5.0200200000000004E4
383 384 -2.4849600000000002E4
384 383 -2.5350600000000002E4
384 384 5.0200200000000004E4
384 385 -2.4849600000000002E4
385 384 -2.5350600000000002E4
385 385 5.0200200000000004E4
385 386 -2.4849600000000002E4
386 385 -2.5350600000000002E4
386 386 5.0200200000000004E4
386 387 -2.4849600000000002E4
387 386 -2.5350600000000002E4
387 387 5.0200200000000004E4
387 388 -2.4849600000000002E4
388 387 -2.5350600000000002E4
388 388 5.0200200000000004E4
388 389 -2.4849600000000002E4
389 388 -2.5350600000000002E4
389 389 5.0200200000000004E4
389 390 -2.4849600000000002E4
390 389 -2.5350600000000002E4
390 390 5.0200200000000004E4
390 391 -2.4849600000000002E4
391 390 -2.5350600000000002E4
391 391 5.0200200000000004E4
391 392 -2.4849600000000002E4
392 391 -2.5350600000000002E4
392 392 5.0200200000000004E4
392 393 -2.4849600000000002E4
393 392 -2.5350600000000002E4
393 393 5.0200200000000004E4
393 394 -2.4849600000000002E4
394 393 -2.5350600000000002E4
394 394 5.0200200000000004E4
394 395 -2.4849600000000002E4
395 394 -2.5350600000000002E4
395 395 5.0200200000000004E4
395 396 -2.4849600000000002E4
396 395 -2.5350600000000002E4
396 396 5.0200200000000004E4
396 397 -2.4849600000000002E4
397 396 -2.5350600000000002E4
397 397 5.0200200000000004E4
397 398 -2.4849600000000002E4
398 397 -2.5350600000000002E4
398 398 5.0200200000000004E4
398 399 -2.4849600000000002E4
399 398 -2.5350600000000002E4
399 399 5.0200200000000004E4
399 400 -2.4849600000000002E4
400 399 -2.5350600000000002E4
400 400 5.0200200000000004E4
400 401 -2.4849600000000002E4
401 400 -2.5350600000000002E4
401 401 5.0200200000000004E4
401 402 -2.4849600000000002E4
402 401 -2.5350600000000002E4
402 402 5.0200200000000004E4
402 403 -2.4849600000000002E4
403 402 -2.5350600000000002E4
403 403 5.0200200000000004E4
403 404 -2.4849600000000002E4
404 403 -2.5350600000000002E4
404 404 5.0200200000000004E4
404 405 -2.4849600000000002E4
405 404 -2.5350600000000002E4
405 405 5.0200200000000004E4
405 406 -2.4849600000000002E4
406 405 -2.5350600000000002E4
406 406 5.0200200000000004E4
406 407 -2.4849600000000002E4
407 406 -2.5350600000000002E4
407 407 5.0200200000000004E4
407 408 -2.4849600000000002E4
408 407 -2.5350600000000002E4
408 408 5.0200200000000004E4
408 409 -2.4849600000000002E4
409 408 -2.5350600000000002E4
409 409 5.0200200000000004E4
409 410 -2.4849600000000002E4
410 409 -2.5350600000000002E4
410 410 5.0200200000000004E4
410 411 -2.4849600000000002E4
411 410 -2.5350600000000002E4
411 411 5.0200200000000004E4
411 412 -2.4849600000000002E4
412 411 -2.5350600000000002E4
412 412 5.0200200000000004E4
412 413 -2.4849600000000002E4
413 412 -2.5350600000000002E4
413 413 5.0200200000000004E4
413 414 -2.4849600000000002E4
414 413 -2.5350600000000002E4
414 414 5.0200200000000004E4
414 415 -2.4849600000000002E4
415 414 -2.5350600000000002E4
415 415 5.0200200000000004E4
415 416 -2.4849600000000002E4
416 415 -2.5350600000000002E4
416 416 5.0200200000000004E4
416 417 -2.4849600000000002E4
417 416 -2.5350600000000002E4
417 417 5.0200200000000004E4
417 418 -2.4849600000000002E4
418 417 -2.5350600000000002E4
418 418 5.0200200000000004E4
418 419 -2.4849600000000002E4
419 418 -2.5350600000000002E4
419 419 5.0200200000000004E4
419 420 -2.4849600000000002E4
420 419 -2.5350600000000002E4
420 420 5.0200200000000004E4
420 421 -2.4849600000000002E4
421 420 -2.5350600000000002E4
421 421 5.0200200000000004E4
421 422 -2.4849600000000002E4
422 421 -2.5350600000000002E4
422 422 5.0200200000000004E4
422 423 -2.4849600000000002E4
423 422 -2.5350600000000002E4
423 423 5.0200200000000004E4
423 424 -2.4849600000000002E4
424 423 -2.5350600000000002E4
424 424 5.0200200000000004E4
424 425 -2.4849600000000002E4
425 424 -2.5350600000000002E4
425 425 5.0200200000000004E4
425 426 -2.4849600000000002E4
426 425 -2.5350600000000002E4
426 426 5.0200200000000004E4
426 427 -2.4849600000000002E4
427 426 -2.5350600000000002E4
427 427 5.0200200000000004E4
427 428 -2.4849600000000002E4
428 427 -2.5350600000000002E4
428 428 5.0200200000000004E4
428 429 -2.4849600000000002E4
429 428 -2.5350600000000002E4
429 429 5.0200200000000004E4
429 430 -2.4849600000000002E4
430 429 -2.5350600000000002E4
430 430 5.0200200000000004E4
430 431 -2.4849600000000002E4
431 430 -2.5350600000000002E4
431 431 5.0200200000000004E4
431 432 -2.4849600000000002E4
432 431 -2.5350600000000002E4
432 432 5.0200200000000004E4
432 433 -2.4849600000000002E4
433 432 -2.5350600000000002E4
433 433 5.0200200000000004E4
433 434 -2.4849600000000002E4
434 433 -2.5350600000000002E4
434 434 5.0200200000000004E4
434 435 -2.4849600000000002E4
435 434 -2.5350600000000002E4
435 435 5.0200200000000004E4
435 436 -2.4849600000000002E4
436 435 -2.5350600000000002E4
436 436 5.0200200000000004E4
436 437 -2.4849600000000002E4
437 436 -2.5350600000000002E4
437 437 5.0200200000000004E4
437 438 -2.4849600000000002E4
438 437 -2.5350600000000002E4
438 438 5.0200200000000004E4
438 439 -2.4849600000000002E4
439 438 -2.5350600000000002E4
439 439 5.0200200000000004E4
439 440 -2.4849600000000002E4
440 439 -2.5350600000000002E4
440 440 5.0200200000000004E4
440 441 -2.4849600000000002E4
441 440 -2.5350600000000002E4
441 441 5.0200200000000004E4
441 442 -2.4849600000000002E4
442 441 -2.5350600000000002E4
442 442 5.0200200000000004E4
442 443 -2.4849600000000002E4
443 442 -2.5350600000000002E4
443 443 5.0200200000000004E4
443 444 -2.4849600000000002E4
444 443 -2.5350600000000002E4
444 444 5.0200200000000004E4
444 445 -2.4849600000000002E4
445 444 -2.5350600000000002E4
445 445 5.0200200000000004E4
445 446 -2.4849600000000002E4
446 445 -2.5350600000000002E4
446 446 5.0200200000000004E4
446 447 -2.4849600000000002E4
447 446 -2.5350600000000002E4
447 447 5.0200200000000004E4
447 448 -2.4849600000000002E4
448 447 -2.5350600000000002E4
448 448 5.0200200000000004E4
448 449 -2.4849600000000002E4
449 448 -2.5350600000000002E4
449 449 5.0200200000000004E4
449 450 -2.4849600000000002E4
450 449 -2.5350600000000002E4
450 450 5.0200200000000004E4
450 451 -2.4849600000000002E4
451 450 -2.5350600000000002E4
451 451 5.0200200000000004E4
451 452 -2.4849600000000002E4
452 451 -2.5350600000000002E4
452 452 5.0200200000000004E4
452 453 -2.4849600000000002E4
453 452 -2.5350600000000002E4
453 453 5.0200200000000004E4
453 454 -2.4849600000000002E4
454 453 -2.5350600000000002E4
454 454 5.0200200000000004E4
454 455 -2.4849600000000002E4
455 454 -2.5350600000000002E4
455 455 5.0200200000000004E4
455 456 -2.4849600000000002E4
456 455 -2.5350600000000002E4
456 456 5.0200200000000004E4
456 457 -2.4849600000000002E4
457 456 -2.5350600000000002E4
457 457 5.0200200000000004E4
457 458 -2.4849600000000002E4
458 457 -2.5350600000000002E4
458 458 5.0200200000000004E4
458 459 -2.4849600000000002E4
459 458 -2.5350600000000002E4
459 459 5.0200200000000004E4
459 460 -2.4849600000000002E4
460 459 -2.5350600000000002E4
460 460 5.0200200000000004E4
460 461 -2.4849600000000002E4
461 460 -2.5350600000000002E4
461 461 5.0200200000000004E4
461 462 -2.4849600000000002E4
462 461 -2.5350600000000002E4
462 462 5.0200200000000004E4
462 463 -2.4849600000000002E4
463 462 -2.5350600000000002E4
463 463 5.0200200000000004E4
463 464 -2.4849600000000002E4
464 463 -2.5350600000000002E4
464 464 5.0200200000000004E4
464 465 -2.4849600000000002E4
465 464 -2.5350600000000002E4
465 465 5.0200200000000004E4
465 466 -2.4849600000000002E4
466 465 -2.5350600000000002E4
466 466 5.0200200000000004E4
466 467 -2.4849600000000002E4
467 466 -2.5350600000000002E4
467 467 5.0200200000000004E4
467 468 -2.4849600000000002E4
468 467 -2.5350600000000002E4
468 468 5.0200200000000004E4
468 469 -2.4849600000000002E4
469 468 -2.5350600000000002E4
469 469 5.0200200000000004E4
469 470 -2.4849600000000002E4
470 469 -2.5350600000000002E4
470 470 5.0200200000000004E4
470 471 -2.4849600000000002E4
471 470 -2.5350600000000002E4
471 471 5.0200200000000004E4
471 472 -2.4849600000000002E4
472 471 -2.5350600000000002E4
472 472 5.0200200000000004E4
472 473 -2.4849600000000002E4
473 472 -2.5350600000000002E4
473 473 5.0200200000000004E4
473 474 -2.4849600000000002E4
474 473 -2.5350600000000002E4
474 474 5.0200200000000004E4
474 475 -2.4849600000000002E4
475 474 -2.5350600000000002E4
475 475 5.0200200000000004E4
475 476 -2.4849600000000002E4
476 475 -2.5350600000000002E4
476 476 5.0200200000000004E4
476 477 -2.4849600000000002E4
477 476 -2.5350600000000002E4
477 477 5.0200200000000004E4
477 478 -2.4849600000000002E4
478 477 -2.5350600000000002E4
478 478 5.0200200000000004E4
478 479 -2.4849600000000002E4
479 478 -2.5350600000000002E4
479 479 5.0200200000000004E4
479 480 -2.4849600000000002E4
480 479 -2.5350600000000002E4
480 480 5.0200200000000004E4
480 481 -2.4849600000000002E4
481 480 -2.5350600000000002E4
481 481 5.0200200000000004E4
481 482 -2.4849600000000002E4
482 481 -2.5350600000000002E4
482 482 5.0200200000000004E4
482 483 -2.4849600000000002E4
483 482 -2.5350600000000002E4
483 483 5.0200200000000004E4
483 484 -2.4849600000000002E4
484 483 -2.5350600000000002E4
484 484 5.0200200000000004E4
484 485 -2.4849600000000002E4
485 484 -2.5350600000000002E4
485 485 5.0200200000000004E4
485 486 -2.4849600000000002E4
486 485 -2.5350600000000002E4
486 486 5.0200200000000004E4
486 487 -2.4849600000000002E4
487 486 -2.5350600000000002E4
487 487 5.0200200000000004E4
487 488 -2.4849600000000002E4
488 487 -2.5350600000000002E4
488 488 5.0200200000000004E4
488 489 -2.4849600000000002E4
489 488 -2.5350600000000002E4
489 489 5.0200200000000004E4
489 490 -2.4849600000000002E4
490 489 -2.5350600000000002E4
490 490 5.0200200000000004E4
490 491 -2.4849600000000002E4
491 490 -2.5350600000000002E4
491 491 5.0200200000000004E4
491 492 -2.4849600000000002E4
492 491 -2.5350600000000002E4
492 492 5.0200200000000004E4
492 493 -2.4849600000000002E4
493 492 -2.5350600000000002E4
493 493 5.0200200000000004E4
493 494 -2.4849600000000002E4
494 493 -2.5350600000000002E4
494 494 5.0200200000000004E4
494 495 -2.4849600000000002E4
495 494 -2.5350600000000002E4
495 495 5.0200200000000004E4
495 496 -2.4849600000000002E4
496 495 -2.5350600000000002E4
496 496 5.0200200000000004E4
496 497 -2.4849600000000002E4
497 496 -2.5350600000000002E4
497 497 5.0200200000000004E4
497 498 -2.4849600000000002E4
498 497 -2.5350600000000002E4
498 498 5.0200200000000004E4
498 499 -2.4849600000000002E4
499 498 -2.5350600000000002E4
499 499 5.0200200000000004E4
499 500 -2.4849600000000002E4
500 499 -2.5350600000000002E4
500 500 5.0200200000000004E4
