%%MatrixMarket matrix coordinate real general
%
1000 1000 2998
1 1 3.006003E5
1 2 -1.4979965E5
2 1 -1.5080065E5
2 2 3.006003E5
2 3 -1.4979965E5
3 2 -1.5080065E5
3 3 3.006003E5
3 4 -1.4979965E5
4 3 -1.5080065E5
4 4 3.006003E5
4 5 -1.4979965E5
5 4 -1.5080065E5
5 5 3.006003E5
5 6 -1.4979965E5
6 5 -1.5080065E5
6 6 3.006003E5
6 7 -1.4979965E5
7 6 -1.5080065E5
7 7 3.006003E5
7 8 -1.4979965E5
8 7 -1.5080065E5
8 8 3.006003E5
8 9 -1.4979965E5
9 8 -1.5080065E5
9 9 3.006003E5
9 10 -1.4979965E5
10 9 -1.5080065E5
10 10 3.006003E5
10 11 -1.4979965E5
11 10 -1.5080065E5
11 11 3.006003E5
11 12 -1.4979965E5
12 11 -1.5080065E5
12 12 3.006003E5
12 13 -1.4979965E5
13 12 -1.5080065E5
13 13 3.006003E5
13 14 -1.4979965E5
14 13 -1.5080065E5
14 14 3.006003E5
14 15 -1.4979965E5
15 14 -1.5080065E5
15 15 3.006003E5
15 16 -1.4979965E5
16 15 -1.5080065E5
16 16 3.006003E5
16 17 -1.4979965E5
17 16 -1.5080065E5
17 17 3.006003E5
17 18 -1.4979965E5
18 17 -1.5080065E5
18 18 3.006003E5
18 19 -1.4979965E5
19 18 -1.5080065E5
19 19 3.006003E5
19 20 -1.4979965E5
20 19 -1.5080065E5
20 20 3.006003E5
20 21 -1.4979965E5
21 20 -1.5080065E5
21 21 3.006003E5
21 22 -1.4979965E5
22 21 -1.5080065E5
22 22 3.006003E5
22 23 -1.4979965E5
23 22 -1.5080065E5
23 23 3.006003E5
23 24 -1.4979965E5
24 23 -1.5080065E5
24 24 3.006003E5
24 25 -1.4979965E5
25 24 -1.5080065E5
25 25 3.006003E5
25 26 -1.4979965E5
26 25 -1.5080065E5
26 26 3.006003E5
26 27 -1.4979965E5
27 26 -1.5080065E5
27 27 3.006003E5
27 28 -1.4979965E5
28 27 -1.5080065E5
28 28 3.006003E5
28 29 -1.4979965E5
29 28 -1.5080065E5
29 29 3.006003E5
29 30 -1.4979965E5
30 29 -1.5080065E5
30 30 3.006003E5
30 31 -1.4979965E5
31 30 -1.5080065E5
31 31 3.006003E5
31 32 -1.4979965E5
32 31 -1.5080065E5
32 32 3.006003E5
32 33 -1.4979965E5
33 32 -1.5080065E5
33 33 3.006003E5
33 34 -1.4979965E5
34 33 -1.5080065E5
34 34 3.006003E5
34 35 -1.4979965E5
35 34 -1.5080065E5
35 35 3.006003E5
35 36 -1.4979965E5
36 35 -1.5080065E5
36 36 3.006003E5
36 37 -1.4979965E5
37 36 -1.5080065E5
37 37 3.006003E5
37 38 -1.4979965E5
38 37 -1.5080065E5
38 38 3.006003E5
38 39 -1.4979965E5
39 38 -1.5080065E5
39 39 3.006003E5
39 40 -1.4979965E5
40 39 -1.5080065E5
40 40 3.006003E5
40 41 -1.4979965E5
41 40 -1.5080065E5
41 41 3.006003E5
41 42 -1.4979965E5
42 41 -1.5080065E5
42 42 3.006003E5
42 43 -1.4979965E5
43 42 -1.5080065E5
43 43 3.006003E5
43 44 -1.4979965E5
44 43 -1.5080065E5
44 44 3.006003E5
44 45 -1.4979965E5
45 44 -1.5080065E5
45 45 3.006003E5
45 46 -1.4979965E5
46 45 -1.5080065E5
46 46 3.006003E5
46 47 -1.4979965E5
47 46 -1.5080065E5
47 47 3.006003E5
47 48 -1.4979965E5
48 47 -1.5080065E5
48 48 3.006003E5
48 49 -1.4979965E5
49 48 -1.5080065E5
49 49 3.006003E5
49 50 -1.4979965E5
50 49 -1.5080065E5
50 50 3.006003E5
50 51 -1.4979965E5
51 50 -1.5080065E5
51 51 3.006003E5
51 52 -1.4979965E5
52 51 -1.5080065E5
52 52 3.006003E5
52 53 -1.4979965E5
53 52 -1.5080065E5
53 53 3.006003E5
53 54 -1.4979965E5
54 53 -1.5080065E5
54 54 3.006003E5
54 55 -1.4979965E5
55 54 -1.5080065E5
55 55 3.006003E5
55 56 -1.4979965E5
56 55 -1.5080065E5
56 56 3.006003E5
56 57 -1.4979965E5
57 56 -1.5080065E5
57 57 3.006003E5
57 58 -1.4979965E5
58 57 -1.5080065E5
58 58 3.006003E5
58 59 -1.4979965E5
59 58 -1.5080065E5
59 59 3.006003E5
59 60 -1.4979965E5
60 59 -1.5080065E5
60 60 3.006003E5
60 61 -1.4979965E5
61 60 -1.5080065E5
61 61 3.006003E5
61 62 -1.4979965E5
62 61 -1.5080065E5
62 62 3.006003E5
62 63 -1.4979965E5
63 62 -1.5080065E5
63 63 3.006003E5
63 64 -1.4979965E5
64 63 -1.5080065E5
64 64 3.006003E5
64 65 -1.4979965E5
65 64 -1.5080065E5
65 65 3.006003E5
65 66 -1.4979965E5
66 65 -1.5080065E5
66 66 3.006003E5
66 67 -1.4979965E5
67 66 -1.5080065E5
67 67 3.006003E5
67 68 -1.4979965E5
68 67 -1.5080065E5
68 68 3.006003E5
68 69 -1.4979965E5
69 68 -1.5080065E5
69 69 3.006003E5
69 70 -1.4979965E5
70 69 -1.5080065E5
70 70 3.006003E5
70 71 -1.4979965E5
71 70 -1.5080065E5
71 71 3.006003E5
71 72 -1.4979965E5
72 71 -1.5080065E5
72 72 3.006003E5
72 73 -1.4979965E5
73 72 -1.5080065E5
73 73 3.006003E5
73 74 -1.4979965E5
74 73 -1.5080065E5
74 74 3.006003E5
74 75 -1.4979965E5
75 74 -1.5080065E5
75 75 3.006003E5
75 76 -1.4979965E5
76 75 -1.5080065E5
76 76 3.006003E5
76 77 -1.4979965E5
77 76 -1.5080065E5
77 77 3.006003E5
77 78 -1.4979965E5
78 77 -1.5080065E5
78 78 3.006003E5
78 79 -1.4979965E5
79 78 -1.5080065E5
79 79 3.006003E5
79 80 -1.4979965E5
80 79 -1.5080065E5
80 80 3.006003E5
80 81 -1.4979965E5
81 80 -1.5080065E5
81 81 3.006003E5
81 82 -1.4979965E5
82 81 -1.5080065E5
82 82 3.006003E5
82 83 -1.4979965E5
83 82 -1.5080065E5
83 83 3.006003E5
83 84 -1.4979965E5
84 83 -1.5080065E5
84 84 3.006003E5
84 85 -1.4979965E5
85 84 -1.5080065E5
85 85 3.006003E5
85 86 -1.4979965E5
86 85 -1.5080065E5
86 86 3.006003E5
86 87 -1.4979965E5
87 86 -1.5080065E5
87 87 3.006003E5
87 88 -1.4979965E5
88 87 -1.5080065E5
88 88 3.006003E5
88 89 -1.4979965E5
89 88 -1.5080065E5
89 89 3.006003E5
89 90 -1.4979965E5
90 89 -1.5080065E5
90 90 3.006003E5
90 91 -1.4979965E5
91 90 -1.5080065E5
91 91 3.006003E5
91 92 -1.4979965E5
92 91 -1.5080065E5
92 92 3.006003E5
92 93 -1.4979965E5
93 92 -1.5080065E5
93 93 3.006003E5
93 94 -1.4979965E5
94 93 -1.5080065E5
94 94 3.006003E5
94 95 -1.4979965E5
95 94 -1.5080065E5
95 95 3.006003E5
95 96 -1.4979965E5
96 95 -1.5080065E5
96 96 3.006003E5
96 97 -1.4979965E5
97 96 -1.5080065E5
97 97 3.006003E5
97 98 -1.4979965E5
98 97 -1.5080065E5
98 98 3.006003E5
98 99 -1.4979965E5
99 98 -1.5080065E5
99 99 3.006003E5
99 100 -1.4979965E5
100 99 -1.5080065E5
100 100 3.006003E5
100 101 -1.4979965E5
101 100 -1.5080065E5
101 101 3.006003E5
101 102 -1.4979965E5
102 101 -1.5080065E5
102 102 3.006003E5
102 103 -1.4979965E5
103 102 -1.5080065E5
103 103 3.006003E5
103 104 -1.4979965E5
104 103 -1.5080065E5
104 104 3.006003E5
104 105 -1.4979965E5
105 104 -1.5080065E5
105 105 3.006003E5
105 106 -1.4979965E5
106 105 -1.5080065E5
106 106 3.006003E5
106 107 -1.4979965E5
107 106 -1.5080065E5
107 107 3.006003E5
107 108 -1.4979965E5
108 107 -1.5080065E5
108 108 3.006003E5
108 109 -1.4979965E5
109 108 -1.5080065E5
109 109 3.006003E5
109 110 -1.4979965E5
110 109 -1.5080065E5
110 110 3.006003E5
110 111 -1.4979965E5
111 110 -1.5080065E5
111 111 3.006003E5
111 112 -1.4979965E5
112 111 -1.5080065E5
112 112 3.006003E5
112 113 -1.4979965E5
113 112 -1.5080065E5
113 113 3.006003E5
113 114 -1.4979965E5
114 113 -1.5080065E5
114 114 3.006003E5
114 115 -1.4979965E5
115 114 -1.5080065E5
115 115 3.006003E5
115 116 -1.4979965E5
116 115 -1.5080065E5
116 116 3.006003E5
116 117 -1.4979965E5
117 116 -1.5080065E5
117 117 3.006003E5
117 118 -1.4979965E5
118 117 -1.5080065E5
118 118 3.006003E5
118 119 -1.4979965E5
119 118 -1.5080065E5
119 119 3.006003E5
119 120 -1.4979965E5
120 119 -1.5080065E5
120 120 3.006003E5
120 121 -1.4979965E5
121 120 -1.5080065E5
121 121 3.006003E5
121 122 -1.4979965E5
122 121 -1.5080065E5
122 122 3.006003E5
122 123 -1.4979965E5
123 122 -1.5080065E5
123 123 3.006003E5
123 124 -1.4979965E5
124 123 -1.5080065E5
124 124 3.006003E5
124 125 -1.4979965E5
125 124 -1.5080065E5
125 125 3.006003E5
125 126 -1.4979965E5
126 125 -1.5080065E5
126 126 3.006003E5
126 127 -1.4979965E5
127 126 -1.5080065E5
127 127 3.006003E5
127 128 -1.4979965E5
128 127 -1.5080065E5
128 128 3.006003E5
128 129 -1.4979965E5
129 128 -1.5080065E5
129 129 3.006003E5
129 130 -1.4979965E5
130 129 -1.5080065E5
130 130 3.006003E5
130 131 -1.4979965E5
131 130 -1.5080065E5
131 131 3.006003E5
131 132 -1.4979965E5
132 131 -1.5080065E5
132 132 3.006003E5
132 133 -1.4979965E5
133 132 -1.5080065E5
133 133 3.006003E5
133 134 -1.4979965E5
134 133 -1.5080065E5
134 134 3.006003E5
134 135 -1.4979965E5
135 134 -1.5080065E5
135 135 3.006003E5
135 136 -1.4979965E5
136 135 -1.5080065E5
136 136 3.006003E5
136 137 -1.4979965E5
137 136 -1.5080065E5
137 137 3.006003E5
137 138 -1.4979965E5
138 137 -1.5080065E5
138 138 3.006003E5
138 139 -1.4979965E5
139 138 -1.5080065E5
139 139 3.006003E5
139 140 -1.4979965E5
140 139 -1.5080065E5
140 140 3.006003E5
140 141 -1.4979965E5
141 140 -1.5080065E5
141 141 3.006003E5
141 142 -1.4979965E5
142 141 -1.5080065E5
142 142 3.006003E5
142 143 -1.4979965E5
143 142 -1.5080065E5
143 143 3.006003E5
143 144 -1.4979965E5
144 143 -1.5080065E5
144 144 3.006003E5
144 145 -1.4979965E5
145 144 -1.5080065E5
145 145 3.006003E5
145 146 -1.4979965E5
146 145 -1.5080065E5
146 146 3.006003E5
146 147 -1.4979965E5
147 146 -1.5080065E5
147 147 3.006003E5
147 148 -1.4979965E5
148 147 -1.5080065E5
148 148 3.006003E5
148 149 -1.4979965E5
149 148 -1.5080065E5
149 149 3.006003E5
149 150 -1.4979965E5
150 149 -1.5080065E5
150 150 3.006003E5
150 151 -1.4979965E5
151 150 -1.5080065E5
151 151 3.006003E5
151 152 -1.4979965E5
152 151 -1.5080065E5
152 152 3.006003E5
152 153 -1.4979965E5
153 152 -1.5080065E5
153 153 3.006003E5
153 154 -1.4979965E5
154 153 -1.5080065E5
154 154 3.006003E5
154 155 -1.4979965E5
155 154 -1.5080065E5
155 155 3.006003E5
155 156 -1.4979965E5
156 155 -1.5080065E5
156 156 3.006003E5
156 157 -1.4979965E5
157 156 -1.5080065E5
157 157 3.006003E5
157 158 -1.4979965E5
158 157 -1.5080065E5
158 158 3.006003E5
158 159 -1.4979965E5
159 158 -1.5080065E5
159 159 3.006003E5
159 160 -1.4979965E5
160 159 -1.5080065E5
160 160 3.006003E5
160 161 -1.4979965E5
161 160 -1.5080065E5
161 161 3.006003E5
161 162 -1.4979965E5
162 161 -1.5080065E5
162 162 3.006003E5
162 163 -1.4979965E5
163 162 -1.5080065E5
163 163 3.006003E5
163 164 -1.4979965E5
164 163 -1.5080065E5
164 164 3.006003E5
164 165 -1.4979965E5
165 164 -1.5080065E5
165 165 3.006003E5
165 166 -1.4979965E5
166 165 -1.5080065E5
166 166 3.006003E5
166 167 -1.4979965E5
167 166 -1.5080065E5
167 167 3.006003E5
167 168 -1.4979965E5
168 167 -1.5080065E5
168 168 3.006003E5
168 169 -1.4979965E5
169 168 -1.5080065E5
169 169 3.006003E5
169 170 -1.4979965E5
170 169 -1.5080065E5
170 170 3.006003E5
170 171 -1.4979965E5
171 170 -1.5080065E5
171 171 3.006003E5
171 172 -1.4979965E5
172 171 -1.5080065E5
172 172 3.006003E5
172 173 -1.4979965E5
173 172 -1.5080065E5
173 173 3.006003E5
173 174 -1.4979965E5
174 173 -1.5080065E5
174 174 3.006003E5
174 175 -1.4979965E5
175 174 -1.5080065E5
175 175 3.006003E5
175 176 -1.4979965E5
176 175 -1.5080065E5
176 176 3.006003E5
176 177 -1.4979965E5
177 176 -1.5080065E5
177 177 3.006003E5
177 178 -1.4979965E5
178 177 -1.5080065E5
178 178 3.006003E5
178 179 -1.4979965E5
179 178 -1.5080065E5
179 179 3.006003E5
179 180 -1.4979965E5
180 179 -1.5080065E5
180 180 3.006003E5
180 181 -1.4979965E5
181 180 -1.5080065E5
181 181 3.006003E5
181 182 -1.4979965E5
182 181 -1.5080065E5
182 182 3.006003E5
182 183 -1.4979965E5
183 182 -1.5080065E5
183 183 3.006003E5
183 184 -1.4979965E5
184 183 -1.5080065E5
184 184 3.006003E5
184 185 -1.4979965E5
185 184 -1.5080065E5
185 185 3.006003E5
185 186 -1.4979965E5
186 185 -1.5080065E5
186 186 3.006003E5
186 187 -1.4979965E5
187 186 -1.5080065E5
187 187 3.006003E5
187 188 -1.4979965E5
188 187 -1.5080065E5
188 188 3.006003E5
188 189 -1.4979965E5
189 188 -1.5080065E5
189 189 3.006003E5
189 190 -1.4979965E5
190 189 -1.5080065E5
190 190 3.006003E5
190 191 -1.4979965E5
191 190 -1.5080065E5
191 191 3.006003E5
191 192 -1.4979965E5
192 191 -1.5080065E5
192 192 3.006003E5
192 193 -1.4979965E5
193 192 -1.5080065E5
193 193 3.006003E5
193 194 -1.4979965E5
194 193 -1.5080065E5
194 194 3.006003E5
194 195 -1.4979965E5
195 194 -1.5080065E5
195 195 3.006003E5
195 196 -1.4979965E5
196 195 -1.5080065E5
196 196 3.006003E5
196 197 -1.4979965E5
197 196 -1.5080065E5
197 197 3.006003E5
197 198 -1.4979965E5
198 197 -1.5080065E5
198 198 3.006003E5
198 199 -1.4979965E5
199 198 -1.5080065E5
199 199 3.006003E5
199 200 -1.4979965E5
200 199 -1.5080065E5
200 200 3.006003E5
200 201 -1.4979965E5
201 200 -1.5080065E5
201 201 3.006003E5
201 202 -1.4979965E5
202 201 -1.5080065E5
202 202 3.006003E5
202 203 -1.4979965E5
203 202 -1.5080065E5
203 203 3.006003E5
203 204 -1.4979965E5
204 203 -1.5080065E5
204 204 3.006003E5
204 205 -1.4979965E5
205 204 -1.5080065E5
205 205 3.006003E5
205 206 -1.4979965E5
206 205 -1.5080065E5
206 206 3.006003E5
206 207 -1.4979965E5
207 206 -1.5080065E5
207 207 3.006003E5
207 208 -1.4979965E5
208 207 -1.5080065E5
208 208 3.006003E5
208 209 -1.4979965E5
209 208 -1.5080065E5
209 209 3.006003E5
209 210 -1.4979965E5
210 209 -1.5080065E5
210 210 3.006003E5
210 211 -1.4979965E5
211 210 -1.5080065E5
211 211 3.006003E5
211 212 -1.4979965E5
212 211 -1.5080065E5
212 212 3.006003E5
212 213 -1.4979965E5
213 212 -1.5080065E5
213 213 3.006003E5
213 214 -1.4979965E5
214 213 -1.5080065E5
214 214 3.006003E5
214 215 -1.4979965E5
215 214 -1.5080065E5
215 215 3.006003E5
215 216 -1.4979965E5
216 215 -1.5080065E5
216 216 3.006003E5
216 217 -1.4979965E5
217 216 -1.5080065E5
217 217 3.006003E5
217 218 -1.4979965E5
218 217 -1.5080065E5
218 218 3.006003E5
218 219 -1.4979965E5
219 218 -1.5080065E5
219 219 3.006003E5
219 220 -1.4979965E5
220 219 -1.5080065E5
220 220 3.006003E5
220 221 -1.4979965E5
221 220 -1.5080065E5
221 221 3.006003E5
221 222 -1.4979965E5
222 221 -1.5080065E5
222 222 3.006003E5
222 223 -1.4979965E5
223 222 -1.5080065E5
223 223 3.006003E5
223 224 -1.4979965E5
224 223 -1.5080065E5
224 224 3.006003E5
224 225 -1.4979965E5
225 224 -1.5080065E5
225 225 3.006003E5
225 226 -1.4979965E5
226 225 -1.5080065E5
226 226 3.006003E5
226 227 -1.4979965E5
227 226 -1.5080065E5
227 227 3.006003E5
227 228 -1.4979965E5
228 227 -1.5080065E5
228 228 3.006003E5
228 229 -1.4979965E5
229 228 -1.5080065E5
229 229 3.006003E5
229 230 -1.4979965E5
230 229 -1.5080065E5
230 230 3.006003E5
230 231 -1.4979965E5
231 230 -1.5080065E5
231 231 3.006003E5
231 232 -1.4979965E5
232 231 -1.5080065E5
232 232 3.006003E5
232 233 -1.4979965E5
233 232 -1.5080065E5
233 233 3.006003E5
233 234 -1.4979965E5
234 233 -1.5080065E5
234 234 3.006003E5
234 235 -1.4979965E5
235 234 -1.5080065E5
235 235 3.006003E5
235 236 -1.4979965E5
236 235 -1.5080065E5
236 236 3.006003E5
236 237 -1.4979965E5
237 236 -1.5080065E5
237 237 3.006003E5
237 238 -1.4979965E5
238 237 -1.5080065E5
238 238 3.006003E5
238 239 -1.4979965E5
239 238 -1.5080065E5
239 239 3.006003E5
239 240 -1.4979965E5
240 239 -1.5080065E5
240 240 3.006003E5
240 241 -1.4979965E5
241 240 -1.5080065E5
241 241 3.006003E5
241 242 -1.4979965E5
242 241 -1.5080065E5
242 242 3.006003E5
242 243 -1.4979965E5
243 242 -1.5080065E5
243 243 3.006003E5
243 244 -1.4979965E5
244 243 -1.5080065E5
244 244 3.006003E5
244 245 -1.4979965E5
245 244 -1.5080065E5
245 245 3.006003E5
245 246 -1.4979965E5
246 245 -1.5080065E5
246 246 3.006003E5
246 247 -1.4979965E5
247 246 -1.5080065E5
247 247 3.006003E5
247 248 -1.4979965E5
248 247 -1.5080065E5
248 248 3.006003E5
248 249 -1.4979965E5
249 248 -1.5080065E5
249 249 3.006003E5
249 250 -1.4979965E5
250 249 -1.5080065E5
250 250 3.006003E5
250 251 -1.4979965E5
251 250 -1.5080065E5
251 251 3.006003E5
251 252 -1.4979965E5
252 251 -1.5080065E5
252 252 3.006003E5
252 253 -1.4979965E5
253 252 -1.5080065E5
253 253 3.006003E5
253 254 -1.4979965E5
254 253 -1.5080065E5
254 254 3.006003E5
254 255 -1.4979965E5
255 254 -1.5080065E5
255 255 3.006003E5
255 256 -1.4979965E5
256 255 -1.5080065E5
256 256 3.006003E5
256 257 -1.4979965E5
257 256 -1.5080065E5
257 257 3.006003E5
257 258 -1.4979965E5
258 257 -1.5080065E5
258 258 3.006003E5
258 259 -1.4979965E5
259 258 -1.5080065E5
259 259 3.006003E5
259 260 -1.4979965E5
260 259 -1.5080065E5
260 260 3.006003E5
260 261 -1.4979965E5
261 260 -1.5080065E5
261 261 3.006003E5
261 262 -1.4979965E5
262 261 -1.5080065E5
262 262 3.006003E5
262 263 -1.4979965E5
263 262 -1.5080065E5
263 263 3.006003E5
263 264 -1.4979965E5
264 263 -1.5080065E5
264 264 3.006003E5
264 265 -1.4979965E5
265 264 -1.5080065E5
265 265 3.006003E5
265 266 -1.4979965E5
266 265 -1.5080065E5
266 266 3.006003E5
266 267 -1.4979965E5
267 266 -1.5080065E5
267 267 3.006003E5
267 268 -1.4979965E5
268 267 -1.5080065E5
268 268 3.006003E5
268 269 -1.4979965E5
269 268 -1.5080065E5
269 269 3.006003E5
269 270 -1.4979965E5
270 269 -1.5080065E5
270 270 3.006003E5
270 271 -1.4979965E5
271 270 -1.5080065E5
271 271 3.006003E5
271 272 -1.4979965E5
272 271 -1.5080065E5
272 272 3.006003E5
272 273 -1.4979965E5
273 272 -1.5080065E5
273 273 3.006003E5
273 274 -1.4979965E5
274 273 -1.5080065E5
274 274 3.006003E5
274 275 -1.4979965E5
275 274 -1.5080065E5
275 275 3.006003E5
275 276 -1.4979965E5
276 275 -1.5080065E5
276 276 3.006003E5
276 277 -1.4979965E5
277 276 -1.5080065E5
277 277 3.006003E5
277 278 -1.4979965E5
278 277 -1.5080065E5
278 278 3.006003E5
278 279 -1.4979965E5
279 278 -1.5080065E5
279 279 3.006003E5
279 280 -1.4979965E5
280 279 -1.5080065E5
280 280 3.006003E5
280 281 -1.4979965E5
281 280 -1.5080065E5
281 281 3.006003E5
281 282 -1.4979965E5
282 281 -1.5080065E5
282 282 3.006003E5
282 283 -1.4979965E5
283 282 -1.5080065E5
283 283 3.006003E5
283 284 -1.4979965E5
284 283 -1.5080065E5
284 284 3.006003E5
284 285 -1.4979965E5
285 284 -1.5080065E5
285 285 3.006003E5
285 286 -1.4979965E5
286 285 -1.5080065E5
286 286 3.006003E5
286 287 -1.4979965E5
287 286 -1.5080065E5
287 287 3.006003E5
287 288 -1.4979965E5
288 287 -1.5080065E5
288 288 3.006003E5
288 289 -1.4979965E5
289 288 -1.5080065E5
289 289 3.006003E5
289 290 -1.4979965E5
290 289 -1.5080065E5
290 290 3.006003E5
290 291 -1.4979965E5
291 290 -1.5080065E5
291 291 3.006003E5
291 292 -1.4979965E5
292 291 -1.5080065E5
292 292 3.006003E5
292 293 -1.4979965E5
293 292 -1.5080065E5
293 293 3.006003E5
293 294 -1.4979965E5
294 293 -1.5080065E5
294 294 3.006003E5
294 295 -1.4979965E5
295 294 -1.5080065E5
295 295 3.006003E5
295 296 -1.4979965E5
296 295 -1.5080065E5
296 296 3.006003E5
296 297 -1.4979965E5
297 296 -1.5080065E5
297 297 3.006003E5
297 298 -1.4979965E5
298 297 -1.5080065E5
298 298 3.006003E5
298 299 -1.4979965E5
299 298 -1.5080065E5
299 299 3.006003E5
299 300 -1.4979965E5
300 299 -1.5080065E5
300 300 3.006003E5
300 301 -1.4979965E5
301 300 -1.5080065E5
301 301 3.006003E5
301 302 -1.4979965E5
302 301 -1.5080065E5
302 302 3.006003E5
302 303 -1.4979965E5
303 302 -1.5080065E5
303 303 3.006003E5
303 304 -1.4979965E5
304 303 -1.5080065E5
304 304 3.006003E5
304 305 -1.4979965E5
305 304 -1.5080065E5
305 305 3.006003E5
305 306 -1.4979965E5
306 305 -1.5080065E5
306 306 3.006003E5
306 307 -1.4979965E5
307 306 -1.5080065E5
307 307 3.006003E5
307 308 -1.4979965E5
308 307 -1.5080065E5
308 308 3.006003E5
308 309 -1.4979965E5
309 308 -1.5080065E5
309 309 3.006003E5
309 310 -1.4979965E5
310 309 -1.5080065E5
310 310 3.006003E5
310 311 -1.4979965E5
311 310 -1.5080065E5
311 311 3.006003E5
311 312 -1.4979965E5
312 311 -1.5080065E5
312 312 3.006003E5
312 313 -1.4979965E5
313 312 -1.5080065E5
313 313 3.006003E5
313 314 -1.4979965E5
314 313 -1.5080065E5
314 314 3.006003E5
314 315 -1.4979965E5
315 314 -1.5080065E5
315 315 3.006003E5
315 316 -1.4979965E5
316 315 -1.5080065E5
316 316 3.006003E5
316 317 -1.4979965E5
317 316 -1.5080065E5
317 317 3.006003E5
317 318 -1.4979965E5
318 317 -1.5080065E5
318 318 3.006003E5
318 319 -1.4979965E5
319 318 -1.5080065E5
319 319 3.006003E5
319 320 -1.4979965E5
320 319 -1.5080065E5
320 320 3.006003E5
320 321 -1.4979965E5
321 320 -1.5080065E5
321 321 3.006003E5
321 322 -1.4979965E5
322 321 -1.5080065E5
322 322 3.006003E5
322 323 -1.4979965E5
323 322 -1.5080065E5
323 323 3.006003E5
323 324 -1.4979965E5
324 323 -1.5080065E5
324 324 3.006003E5
324 325 -1.4979965E5
325 324 -1.5080065E5
325 325 3.006003E5
325 326 -1.4979965E5
326 325 -1.5080065E5
326 326 3.006003E5
326 327 -1.4979965E5
327 326 -1.5080065E5
327 327 3.006003E5
327 328 -1.4979965E5
328 327 -1.5080065E5
328 328 3.006003E5
328 329 -1.4979965E5
329 328 -1.5080065E5
329 329 3.006003E5
329 330 -1.4979965E5
330 329 -1.5080065E5
330 330 3.006003E5
330 331 -1.4979965E5
331 330 -1.5080065E5
331 331 3.006003E5
331 332 -1.4979965E5
332 331 -1.5080065E5
332 332 3.006003E5
332 333 -1.4979965E5
333 332 -1.5080065E5
333 333 3.006003E5
333 334 -1.4979965E5
334 333 -1.5080065E5
334 334 3.006003E5
334 335 -1.4979965E5
335 334 -1.5080065E5
335 335 3.006003E5
335 336 -1.4979965E5
336 335 -1.5080065E5
336 336 3.006003E5
336 337 -1.4979965E5
337 336 -1.5080065E5
337 337 3.006003E5
337 338 -1.4979965E5
338 337 -1.5080065E5
338 338 3.006003E5
338 339 -1.4979965E5
339 338 -1.5080065E5
339 339 3.006003E5
339 340 -1.4979965E5
340 339 -1.5080065E5
340 340 3.006003E5
340 341 -1.4979965E5
341 340 -1.5080065E5
341 341 3.006003E5
341 342 -1.4979965E5
342 341 -1.5080065E5
342 342 3.006003E5
342 343 -1.4979965E5
343 342 -1.5080065E5
343 343 3.006003E5
343 344 -1.4979965E5
344 343 -1.5080065E5
344 344 3.006003E5
344 345 -1.4979965E5
345 344 -1.5080065E5
345 345 3.006003E5
345 346 -1.4979965E5
346 345 -1.5080065E5
346 346 3.006003E5
346 347 -1.4979965E5
347 346 -1.5080065E5
347 347 3.006003E5
347 348 -1.4979965E5
348 347 -1.5080065E5
348 348 3.006003E5
348 349 -1.4979965E5
349 348 -1.5080065E5
349 349 3.006003E5
349 350 -1.4979965E5
350 349 -1.5080065E5
350 350 3.006003E5
350 351 -1.4979965E5
351 350 -1.5080065E5
351 351 3.006003E5
351 352 -1.4979965E5
352 351 -1.5080065E5
352 352 3.006003E5
352 353 -1.4979965E5
353 352 -1.5080065E5
353 353 3.006003E5
353 354 -1.4979965E5
354 353 -1.5080065E5
354 354 3.006003E5
354 355 -1.4979965E5
355 354 -1.5080065E5
355 355 3.006003E5
355 356 -1.4979965E5
356 355 -1.5080065E5
356 356 3.006003E5
356 357 -1.4979965E5
357 356 -1.5080065E5
357 357 3.006003E5
357 358 -1.4979965E5
358 357 -1.5080065E5
358 358 3.006003E5
358 359 -1.4979965E5
359 358 -1.5080065E5
359 359 3.006003E5
359 360 -1.4979965E5
360 359 -1.5080065E5
360 360 3.006003E5
360 361 -1.4979965E5
361 360 -1.5080065E5
361 361 3.006003E5
361 362 -1.4979965E5
362 361 -1.5080065E5
362 362 3.006003E5
362 363 -1.4979965E5
363 362 -1.5080065E5
363 363 3.006003E5
363 364 -1.4979965E5
364 363 -1.5080065E5
364 364 3.006003E5
364 365 -1.4979965E5
365 364 -1.5080065E5
365 365 3.006003E5
365 366 -1.4979965E5
366 365 -1.5080065E5
366 366 3.006003E5
366 367 -1.4979965E5
367 366 -1.5080065E5
367 367 3.006003E5
367 368 -1.4979965E5
368 367 -1.5080065E5
368 368 3.006003E5
368 369 -1.4979965E5
369 368 -1.5080065E5
369 369 3.006003E5
369 370 -1.4979965E5
370 369 -1.5080065E5
370 370 3.006003E5
370 371 -1.4979965E5
371 370 -1.5080065E5
371 371 3.006003E5
371 372 -1.4979965E5
372 371 -1.5080065E5
372 372 3.006003E5
372 373 -1.4979965E5
373 372 -1.5080065E5
373 373 3.006003E5
373 374 -1.4979965E5
374 373 -1.5080065E5
374 374 3.006003E5
374 375 -1.4979965E5
375 374 -1.5080065E5
375 375 3.006003E5
375 376 -1.4979965E5
376 375 -1.5080065E5
376 376 3.006003E5
376 377 -1.4979965E5
377 376 -1.5080065E5
377 377 3.006003E5
377 378 -1.4979965E5
378 377 -1.5080065E5
378 378 3.006003E5
378 379 -1.4979965E5
379 378 -1.5080065E5
379 379 3.006003E5
379 380 -1.4979965E5
380 379 -1.5080065E5
380 380 3.006003E5
380 381 -1.4979965E5
381 380 -1.5080065E5
381 381 3.006003E5
381 382 -1.4979965E5
382 381 -1.5080065E5
382 382 3.006003E5
382 383 -1.4979965E5
383 382 -1.5080065E5
383 383 3.006003E5
383 384 -1.4979965E5
384 383 -1.5080065E5
384 384 3.006003E5
384 385 -1.4979965E5
385 384 -1.5080065E5
385 385 3.006003E5
385 386 -1.4979965E5
386 385 -1.5080065E5
386 386 3.006003E5
386 387 -1.4979965E5
387 386 -1.5080065E5
387 387 3.006003E5
387 388 -1.4979965E5
388 387 -1.5080065E5
388 388 3.006003E5
388 389 -1.4979965E5
389 388 -1.5080065E5
389 389 3.006003E5
389 390 -1.4979965E5
390 389 -1.5080065E5
390 390 3.006003E5
390 391 -1.4979965E5
391 390 -1.5080065E5
391 391 3.006003E5
391 392 -1.4979965E5
392 391 -1.5080065E5
392 392 3.006003E5
392 393 -1.4979965E5
393 392 -1.5080065E5
393 393 3.006003E5
393 394 -1.4979965E5
394 393 -1.5080065E5
394 394 3.006003E5
394 395 -1.4979965E5
395 394 -1.5080065E5
395 395 3.006003E5
395 396 -1.4979965E5
396 395 -1.5080065E5
396 396 3.006003E5
396 397 -1.4979965E5
397 396 -1.5080065E5
397 397 3.006003E5
397 398 -1.4979965E5
398 397 -1.5080065E5
398 398 3.006003E5
398 399 -1.4979965E5
399 398 -1.5080065E5
399 399 3.006003E5
399 400 -1.4979965E5
400 399 -1.5080065E5
400 400 3.006003E5
400 401 -1.4979965E5
401 400 -1.5080065E5
401 401 3.006003E5
401 402 -1.4979965E5
402 401 -1.5080065E5
402 402 3.006003E5
402 403 -1.4979965E5
403 402 -1.5080065E5
403 403 3.006003E5
403 404 -1.4979965E5
404 403 -1.5080065E5
404 404 3.006003E5
404 405 -1.4979965E5
405 404 -1.5080065E5
405 405 3.006003E5
405 406 -1.4979965E5
406 405 -1.5080065E5
406 406 3.006003E5
406 407 -1.4979965E5
407 406 -1.5080065E5
407 407 3.006003E5
407 408 -1.4979965E5
408 407 -1.5080065E5
408 408 3.006003E5
408 409 -1.4979965E5
409 408 -1.5080065E5
409 409 3.006003E5
409 410 -1.4979965E5
410 409 -1.5080065E5
410 410 3.006003E5
410 411 -1.4979965E5
411 410 -1.5080065E5
411 411 3.006003E5
411 412 -1.4979965E5
412 411 -1.5080065E5
412 412 3.006003E5
412 413 -1.4979965E5
413 412 -1.5080065E5
413 413 3.006003E5
413 414 -1.4979965E5
414 413 -1.5080065E5
414 414 3.006003E5
414 415 -1.4979965E5
415 414 -1.5080065E5
415 415 3.006003E5
415 416 -1.4979965E5
416 415 -1.5080065E5
416 416 3.006003E5
416 417 -1.4979965E5
417 416 -1.5080065E5
417 417 3.006003E5
417 418 -1.4979965E5
418 417 -1.5080065E5
418 418 3.006003E5
418 419 -1.4979965E5
419 418 -1.5080065E5
419 419 3.006003E5
419 420 -1.4979965E5
420 419 -1.5080065E5
420 420 3.006003E5
420 421 -1.4979965E5
421 420 -1.5080065E5
421 421 3.006003E5
421 422 -1.4979965E5
422 421 -1.5080065E5
422 422 3.006003E5
422 423 -1.4979965E5
423 422 -1.5080065E5
423 423 3.006003E5
423 424 -1.4979965E5
424 423 -1.5080065E5
424 424 3.006003E5
424 425 -1.4979965E5
425 424 -1.5080065E5
425 425 3.006003E5
425 426 -1.4979965E5
426 425 -1.5080065E5
426 426 3.006003E5
426 427 -1.4979965E5
427 426 -1.5080065E5
427 427 3.006003E5
427 428 -1.4979965E5
428 427 -1.5080065E5
428 428 3.006003E5
428 429 -1.4979965E5
429 428 -1.5080065E5
429 429 3.006003E5
429 430 -1.4979965E5
430 429 -1.5080065E5
430 430 3.006003E5
430 431 -1.4979965E5
431 430 -1.5080065E5
431 431 3.006003E5
431 432 -1.4979965E5
432 431 -1.5080065E5
432 432 3.006003E5
432 433 -1.4979965E5
433 432 -1.5080065E5
433 433 3.006003E5
433 434 -1.4979965E5
434 433 -1.5080065E5
434 434 3.006003E5
434 435 -1.4979965E5
435 434 -1.5080065E5
435 435 3.006003E5
435 436 -1.4979965E5
436 435 -1.5080065E5
436 436 3.006003E5
436 437 -1.4979965E5
437 436 -1.5080065E5
437 437 3.006003E5
437 438 -1.4979965E5
438 437 -1.5080065E5
438 438 3.006003E5
438 439 -1.4979965E5
439 438 -1.5080065E5
439 439 3.006003E5
439 440 -1.4979965E5
440 439 -1.5080065E5
440 440 3.006003E5
440 441 -1.4979965E5
441 440 -1.5080065E5
441 441 3.006003E5
441 442 -1.4979965E5
442 441 -1.5080065E5
442 442 3.006003E5
442 443 -1.4979965E5
443 442 -1.5080065E5
443 443 3.006003E5
443 444 -1.4979965E5
444 443 -1.5080065E5
444 444 3.006003E5
444 445 -1.4979965E5
445 444 -1.5080065E5
445 445 3.006003E5
445 446 -1.4979965E5
446 445 -1.5080065E5
446 446 3.006003E5
446 447 -1.4979965E5
447 446 -1.5080065E5
447 447 3.006003E5
447 448 -1.4979965E5
448 447 -1.5080065E5
448 448 3.006003E5
448 449 -1.4979965E5
449 448 -1.5080065E5
449 449 3.006003E5
449 450 -1.4979965E5
450 449 -1.5080065E5
450 450 3.006003E5
450 451 -1.4979965E5
451 450 -1.5080065E5
451 451 3.006003E5
451 452 -1.4979965E5
452 451 -1.5080065E5
452 452 3.006003E5
452 453 -1.4979965E5
453 452 -1.5080065E5
453 453 3.006003E5
453 454 -1.4979965E5
454 453 -1.5080065E5
454 454 3.006003E5
454 455 -1.4979965E5
455 454 -1.5080065E5
455 455 3.006003E5
455 456 -1.4979965E5
456 455 -1.5080065E5
456 456 3.006003E5
456 457 -1.4979965E5
457 456 -1.5080065E5
457 457 3.006003E5
457 458 -1.4979965E5
458 457 -1.5080065E5
458 458 3.006003E5
458 459 -1.4979965E5
459 458 -1.5080065E5
459 459 3.006003E5
459 460 -1.4979965E5
460 459 -1.5080065E5
460 460 3.006003E5
460 461 -1.4979965E5
461 460 -1.5080065E5
461 461 3.006003E5
461 462 -1.4979965E5
462 461 -1.5080065E5
462 462 3.006003E5
462 463 -1.4979965E5
463 462 -1.5080065E5
463 463 3.006003E5
463 464 -1.4979965E5
464 463 -1.5080065E5
464 464 3.006003E5
464 465 -1.4979965E5
465 464 -1.5080065E5
465 465 3.006003E5
465 466 -1.4979965E5
466 465 -1.5080065E5
466 466 3.006003E5
466 467 -1.4979965E5
467 466 -1.5080065E5
467 467 3.006003E5
467 468 -1.4979965E5
468 467 -1.5080065E5
468 468 3.006003E5
468 469 -1.4979965E5
469 468 -1.5080065E5
469 469 3.006003E5
469 470 -1.4979965E5
470 469 -1.5080065E5
470 470 3.006003E5
470 471 -1.4979965E5
471 470 -1.5080065E5
471 471 3.006003E5
471 472 -1.4979965E5
472 471 -1.5080065E5
472 472 3.006003E5
472 473 -1.4979965E5
473 472 -1.5080065E5
473 473 3.006003E5
473 474 -1.4979965E5
474 473 -1.5080065E5
474 474 3.006003E5
474 475 -1.4979965E5
475 474 -1.5080065E5
475 475 3.006003E5
475 476 -1.4979965E5
476 475 -1.5080065E5
476 476 3.006003E5
476 477 -1.4979965E5
477 476 -1.5080065E5
477 477 3.006003E5
477 478 -1.4979965E5
478 477 -1.5080065E5
478 478 3.006003E5
478 479 -1.4979965E5
479 478 -1.5080065E5
479 479 3.006003E5
479 480 -1.4979965E5
480 479 -1.5080065E5
480 480 3.006003E5
480 481 -1.4979965E5
481 480 -1.5080065E5
481 481 3.006003E5
481 482 -1.4979965E5
482 481 -1.5080065E5
482 482 3.006003E5
482 483 -1.4979965E5
483 482 -1.5080065E5
483 483 3.006003E5
483 484 -1.4979965E5
484 483 -1.5080065E5
484 484 3.006003E5
484 485 -1.4979965E5
485 484 -1.5080065E5
485 485 3.006003E5
485 486 -1.4979965E5
486 485 -1.5080065E5
486 486 3.006003E5
486 487 -1.4979965E5
487 486 -1.5080065E5
487 487 3.006003E5
487 488 -1.4979965E5
488 487 -1.5080065E5
488 488 3.006003E5
488 489 -1.4979965E5
489 488 -1.5080065E5
489 489 3.006003E5
489 490 -1.4979965E5
490 489 -1.5080065E5
490 490 3.006003E5
490 491 -1.4979965E5
491 490 -1.5080065E5
491 491 3.006003E5
491 492 -1.4979965E5
492 491 -1.5080065E5
492 492 3.006003E5
492 493 -1.4979965E5
493 492 -1.5080065E5
493 493 3.006003E5
493 494 -1.4979965E5
494 493 -1.5080065E5
494 494 3.006003E5
494 495 -1.4979965E5
495 494 -1.5080065E5
495 495 3.006003E5
495 496 -1.4979965E5
496 495 -1.5080065E5
496 496 3.006003E5
496 497 -1.4979965E5
497 496 -1.5080065E5
497 497 3.006003E5
497 498 -1.4979965E5
498 497 -1.5080065E5
498 498 3.006003E5
498 499 -1.4979965E5
499 498 -1.5080065E5
499 499 3.006003E5
499 500 -1.4979965E5
500 499 -1.5080065E5
500 500 3.006003E5
500 501 -1.4979965E5
501 500 -1.5080065E5
501 501 3.006003E5
501 502 -1.4979965E5
502 501 -1.5080065E5
502 502 3.006003E5
502 503 -1.4979965E5
503 502 -1.5080065E5
503 503 3.006003E5
503 504 -1.4979965E5
504 503 -1.5080065E5
504 504 3.006003E5
504 505 -1.4979965E5
505 504 -1.5080065E5
505 505 3.006003E5
505 506 -1.4979965E5
506 505 -1.5080065E5
506 506 3.006003E5
506 507 -1.4979965E5
507 506 -1.5080065E5
507 507 3.006003E5
507 508 -1.4979965E5
508 507 -1.5080065E5
508 508 3.006003E5
508 509 -1.4979965E5
509 508 -1.5080065E5
509 509 3.006003E5
509 510 -1.4979965E5
510 509 -1.5080065E5
510 510 3.006003E5
510 511 -1.4979965E5
511 510 -1.5080065E5
511 511 3.006003E5
511 512 -1.4979965E5
512 511 -1.5080065E5
512 512 3.006003E5
512 513 -1.4979965E5
513 512 -1.5080065E5
513 513 3.006003E5
513 514 -1.4979965E5
514 513 -1.5080065E5
514 514 3.006003E5
514 515 -1.4979965E5
515 514 -1.5080065E5
515 515 3.006003E5
515 516 -1.4979965E5
516 515 -1.5080065E5
516 516 3.006003E5
516 517 -1.4979965E5
517 516 -1.5080065E5
517 517 3.006003E5
517 518 -1.4979965E5
518 517 -1.5080065E5
518 518 3.006003E5
518 519 -1.4979965E5
519 518 -1.5080065E5
519 519 3.006003E5
519 520 -1.4979965E5
520 519 -1.5080065E5
520 520 3.006003E5
520 521 -1.4979965E5
521 520 -1.5080065E5
521 521 3.006003E5
521 522 -1.4979965E5
522 521 -1.5080065E5
522 522 3.006003E5
522 523 -1.4979965E5
523 522 -1.5080065E5
523 523 3.006003E5
523 524 -1.4979965E5
524 523 -1.5080065E5
524 524 3.006003E5
524 525 -1.4979965E5
525 524 -1.5080065E5
525 525 3.006003E5
525 526 -1.4979965E5
526 525 -1.5080065E5
526 526 3.006003E5
526 527 -1.4979965E5
527 526 -1.5080065E5
527 527 3.006003E5
527 528 -1.4979965E5
528 527 -1.5080065E5
528 528 3.006003E5
528 529 -1.4979965E5
529 528 -1.5080065E5
529 529 3.006003E5
529 530 -1.4979965E5
530 529 -1.5080065E5
530 530 3.006003E5
530 531 -1.4979965E5
531 530 -1.5080065E5
531 531 3.006003E5
531 532 -1.4979965E5
532 531 -1.5080065E5
532 532 3.006003E5
532 533 -1.4979965E5
533 532 -1.5080065E5
533 533 3.006003E5
533 534 -1.4979965E5
534 533 -1.5080065E5
534 534 3.006003E5
534 535 -1.4979965E5
535 534 -1.5080065E5
535 535 3.006003E5
535 536 -1.4979965E5
536 535 -1.5080065E5
536 536 3.006003E5
536 537 -1.4979965E5
537 536 -1.5080065E5
537 537 3.006003E5
537 538 -1.4979965E5
538 537 -1.5080065E5
538 538 3.006003E5
538 539 -1.4979965E5
539 538 -1.5080065E5
539 539 3.006003E5
539 540 -1.4979965E5
540 539 -1.5080065E5
540 540 3.006003E5
540 541 -1.4979965E5
541 540 -1.5080065E5
541 541 3.006003E5
541 542 -1.4979965E5
542 541 -1.5080065E5
542 542 3.006003E5
542 543 -1.4979965E5
543 542 -1.5080065E5
543 543 3.006003E5
543 544 -1.4979965E5
544 543 -1.5080065E5
544 544 3.006003E5
544 545 -1.4979965E5
545 544 -1.5080065E5
545 545 3.006003E5
545 546 -1.4979965E5
546 545 -1.5080065E5
546 546 3.006003E5
546 547 -1.4979965E5
547 546 -1.5080065E5
547 547 3.006003E5
547 548 -1.4979965E5
548 547 -1.5080065E5
548 548 3.006003E5
548 549 -1.4979965E5
549 548 -1.5080065E5
549 549 3.006003E5
549 550 -1.4979965E5
550 549 -1.5080065E5
550 550 3.006003E5
550 551 -1.4979965E5
551 550 -1.5080065E5
551 551 3.006003E5
551 552 -1.4979965E5
552 551 -1.5080065E5
552 552 3.006003E5
552 553 -1.4979965E5
553 552 -1.5080065E5
553 553 3.006003E5
553 554 -1.4979965E5
554 553 -1.5080065E5
554 554 3.006003E5
554 555 -1.4979965E5
555 554 -1.5080065E5
555 555 3.006003E5
555 556 -1.4979965E5
556 555 -1.5080065E5
556 556 3.006003E5
556 557 -1.4979965E5
557 556 -1.5080065E5
557 557 3.006003E5
557 558 -1.4979965E5
558 557 -1.5080065E5
558 558 3.006003E5
558 559 -1.4979965E5
559 558 -1.5080065E5
559 559 3.006003E5
559 560 -1.4979965E5
560 559 -1.5080065E5
560 560 3.006003E5
560 561 -1.4979965E5
561 560 -1.5080065E5
561 561 3.006003E5
561 562 -1.4979965E5
562 561 -1.5080065E5
562 562 3.006003E5
562 563 -1.4979965E5
563 562 -1.5080065E5
563 563 3.006003E5
563 564 -1.4979965E5
564 563 -1.5080065E5
564 564 3.006003E5
564 565 -1.4979965E5
565 564 -1.5080065E5
565 565 3.006003E5
565 566 -1.4979965E5
566 565 -1.5080065E5
566 566 3.006003E5
566 567 -1.4979965E5
567 566 -1.5080065E5
567 567 3.006003E5
567 568 -1.4979965E5
568 567 -1.5080065E5
568 568 3.006003E5
568 569 -1.4979965E5
569 568 -1.5080065E5
569 569 3.006003E5
569 570 -1.4979965E5
570 569 -1.5080065E5
570 570 3.006003E5
570 571 -1.4979965E5
571 570 -1.5080065E5
571 571 3.006003E5
571 572 -1.4979965E5
572 571 -1.5080065E5
572 572 3.006003E5
572 573 -1.4979965E5
573 572 -1.5080065E5
573 573 3.006003E5
573 574 -1.4979965E5
574 573 -1.5080065E5
574 574 3.006003E5
574 575 -1.4979965E5
575 574 -1.5080065E5
575 575 3.006003E5
575 576 -1.4979965E5
576 575 -1.5080065E5
576 576 3.006003E5
576 577 -1.4979965E5
577 576 -1.5080065E5
577 577 3.006003E5
577 578 -1.4979965E5
578 577 -1.5080065E5
578 578 3.006003E5
578 579 -1.4979965E5
579 578 -1.5080065E5
579 579 3.006003E5
579 580 -1.4979965E5
580 579 -1.5080065E5
580 580 3.006003E5
580 581 -1.4979965E5
581 580 -1.5080065E5
581 581 3.006003E5
581 582 -1.4979965E5
582 581 -1.5080065E5
582 582 3.006003E5
582 583 -1.4979965E5
583 582 -1.5080065E5
583 583 3.006003E5
583 584 -1.4979965E5
584 583 -1.5080065E5
584 584 3.006003E5
584 585 -1.4979965E5
585 584 -1.5080065E5
585 585 3.006003E5
585 586 -1.4979965E5
586 585 -1.5080065E5
586 586 3.006003E5
586 587 -1.4979965E5
587 586 -1.5080065E5
587 587 3.006003E5
587 588 -1.4979965E5
588 587 -1.5080065E5
588 588 3.006003E5
588 589 -1.4979965E5
589 588 -1.5080065E5
589 589 3.006003E5
589 590 -1.4979965E5
590 589 -1.5080065E5
590 590 3.006003E5
590 591 -1.4979965E5
591 590 -1.5080065E5
591 591 3.006003E5
591 592 -1.4979965E5
592 591 -1.5080065E5
592 592 3.006003E5
592 593 -1.4979965E5
593 592 -1.5080065E5
593 593 3.006003E5
593 594 -1.4979965E5
594 593 -1.5080065E5
594 594 3.006003E5
594 595 -1.4979965E5
595 594 -1.5080065E5
595 595 3.006003E5
595 596 -1.4979965E5
596 595 -1.5080065E5
596 596 3.006003E5
596 597 -1.4979965E5
597 596 -1.5080065E5
597 597 3.006003E5
597 598 -1.4979965E5
598 597 -1.5080065E5
598 598 3.006003E5
598 599 -1.4979965E5
599 598 -1.5080065E5
599 599 3.006003E5
599 600 -1.4979965E5
600 599 -1.5080065E5
600 600 3.006003E5
600 601 -1.4979965E5
601 600 -1.5080065E5
601 601 3.006003E5
601 602 -1.4979965E5
602 601 -1.5080065E5
602 602 3.006003E5
602 603 -1.4979965E5
603 602 -1.5080065E5
603 603 3.006003E5
603 604 -1.4979965E5
604 603 -1.5080065E5
604 604 3.006003E5
604 605 -1.4979965E5
605 604 -1.5080065E5
605 605 3.006003E5
605 606 -1.4979965E5
606 605 -1.5080065E5
606 606 3.006003E5
606 607 -1.4979965E5
607 606 -1.5080065E5
607 607 3.006003E5
607 608 -1.4979965E5
608 607 -1.5080065E5
608 608 3.006003E5
608 609 -1.4979965E5
609 608 -1.5080065E5
609 609 3.006003E5
609 610 -1.4979965E5
610 609 -1.5080065E5
610 610 3.006003E5
610 611 -1.4979965E5
611 610 -1.5080065E5
611 611 3.006003E5
611 612 -1.4979965E5
612 611 -1.5080065E5
612 612 3.006003E5
612 613 -1.4979965E5
613 612 -1.5080065E5
613 613 3.006003E5
613 614 -1.4979965E5
614 613 -1.5080065E5
614 614 3.006003E5
614 615 -1.4979965E5
615 614 -1.5080065E5
615 615 3.006003E5
615 616 -1.4979965E5
616 615 -1.5080065E5
616 616 3.006003E5
616 617 -1.4979965E5
617 616 -1.5080065E5
617 617 3.006003E5
617 618 -1.4979965E5
618 617 -1.5080065E5
618 618 3.006003E5
618 619 -1.4979965E5
619 618 -1.5080065E5
619 619 3.006003E5
619 620 -1.4979965E5
620 619 -1.5080065E5
620 620 3.006003E5
620 621 -1.4979965E5
621 620 -1.5080065E5
621 621 3.006003E5
621 622 -1.4979965E5
622 621 -1.5080065E5
622 622 3.006003E5
622 623 -1.4979965E5
623 622 -1.5080065E5
623 623 3.006003E5
623 624 -1.4979965E5
624 623 -1.5080065E5
624 624 3.006003E5
624 625 -1.4979965E5
625 624 -1.5080065E5
625 625 3.006003E5
625 626 -1.4979965E5
626 625 -1.5080065E5
626 626 3.006003E5
626 627 -1.4979965E5
627 626 -1.5080065E5
627 627 3.006003E5
627 628 -1.4979965E5
628 627 -1.5080065E5
628 628 3.006003E5
628 629 -1.4979965E5
629 628 -1.5080065E5
629 629 3.006003E5
629 630 -1.4979965E5
630 629 -1.5080065E5
630 630 3.006003E5
630 631 -1.4979965E5
631 630 -1.5080065E5
631 631 3.006003E5
631 632 -1.4979965E5
632 631 -1.5080065E5
632 632 3.006003E5
632 633 -1.4979965E5
633 632 -1.5080065E5
633 633 3.006003E5
633 634 -1.4979965E5
634 633 -1.5080065E5
634 634 3.006003E5
634 635 -1.4979965E5
635 634 -1.5080065E5
635 635 3.006003E5
635 636 -1.4979965E5
636 635 -1.5080065E5
636 636 3.006003E5
636 637 -1.4979965E5
637 636 -1.5080065E5
637 637 3.006003E5
637 638 -1.4979965E5
638 637 -1.5080065E5
638 638 3.006003E5
638 639 -1.4979965E5
639 638 -1.5080065E5
639 639 3.006003E5
639 640 -1.4979965E5
640 639 -1.5080065E5
640 640 3.006003E5
640 641 -1.4979965E5
641 640 -1.5080065E5
641 641 3.006003E5
641 642 -1.4979965E5
642 641 -1.5080065E5
642 642 3.006003E5
642 643 -1.4979965E5
643 642 -1.5080065E5
643 643 3.006003E5
643 644 -1.4979965E5
644 643 -1.5080065E5
644 644 3.006003E5
644 645 -1.4979965E5
645 644 -1.5080065E5
645 645 3.006003E5
645 646 -1.4979965E5
646 645 -1.5080065E5
646 646 3.006003E5
646 647 -1.4979965E5
647 646 -1.5080065E5
647 647 3.006003E5
647 648 -1.4979965E5
648 647 -1.5080065E5
648 648 3.006003E5
648 649 -1.4979965E5
649 648 -1.5080065E5
649 649 3.006003E5
649 650 -1.4979965E5
650 649 -1.5080065E5
650 650 3.006003E5
650 651 -1.4979965E5
651 650 -1.5080065E5
651 651 3.006003E5
651 652 -1.4979965E5
652 651 -1.5080065E5
652 652 3.006003E5
652 653 -1.4979965E5
653 652 -1.5080065E5
653 653 3.006003E5
653 654 -1.4979965E5
654 653 -1.5080065E5
654 654 3.006003E5
654 655 -1.4979965E5
655 654 -1.5080065E5
655 655 3.006003E5
655 656 -1.4979965E5
656 655 -1.5080065E5
656 656 3.006003E5
656 657 -1.4979965E5
657 656 -1.5080065E5
657 657 3.006003E5
657 658 -1.4979965E5
658 657 -1.5080065E5
658 658 3.006003E5
658 659 -1.4979965E5
659 658 -1.5080065E5
659 659 3.006003E5
659 660 -1.4979965E5
660 659 -1.5080065E5
660 660 3.006003E5
660 661 -1.4979965E5
661 660 -1.5080065E5
661 661 3.006003E5
661 662 -1.4979965E5
662 661 -1.5080065E5
662 662 3.006003E5
662 663 -1.4979965E5
663 662 -1.5080065E5
663 663 3.006003E5
663 664 -1.4979965E5
664 663 -1.5080065E5
664 664 3.006003E5
664 665 -1.4979965E5
665 664 -1.5080065E5
665 665 3.006003E5
665 666 -1.4979965E5
666 665 -1.5080065E5
666 666 3.006003E5
666 667 -1.4979965E5
667 666 -1.5080065E5
667 667 3.006003E5
667 668 -1.4979965E5
668 667 -1.5080065E5
668 668 3.006003E5
668 669 -1.4979965E5
669 668 -1.5080065E5
669 669 3.006003E5
669 670 -1.4979965E5
670 669 -1.5080065E5
670 670 3.006003E5
670 671 -1.4979965E5
671 670 -1.5080065E5
671 671 3.006003E5
671 672 -1.4979965E5
672 671 -1.5080065E5
672 672 3.006003E5
672 673 -1.4979965E5
673 672 -1.5080065E5
673 673 3.006003E5
673 674 -1.4979965E5
674 673 -1.5080065E5
674 674 3.006003E5
674 675 -1.4979965E5
675 674 -1.5080065E5
675 675 3.006003E5
675 676 -1.4979965E5
676 675 -1.5080065E5
676 676 3.006003E5
676 677 -1.4979965E5
677 676 -1.5080065E5
677 677 3.006003E5
677 678 -1.4979965E5
678 677 -1.5080065E5
678 678 3.006003E5
678 679 -1.4979965E5
679 678 -1.5080065E5
679 679 3.006003E5
679 680 -1.4979965E5
680 679 -1.5080065E5
680 680 3.006003E5
680 681 -1.4979965E5
681 680 -1.5080065E5
681 681 3.006003E5
681 682 -1.4979965E5
682 681 -1.5080065E5
682 682 3.006003E5
682 683 -1.4979965E5
683 682 -1.5080065E5
683 683 3.006003E5
683 684 -1.4979965E5
684 683 -1.5080065E5
684 684 3.006003E5
684 685 -1.4979965E5
685 684 -1.5080065E5
685 685 3.006003E5
685 686 -1.4979965E5
686 685 -1.5080065E5
686 686 3.006003E5
686 687 -1.4979965E5
687 686 -1.5080065E5
687 687 3.006003E5
687 688 -1.4979965E5
688 687 -1.5080065E5
688 688 3.006003E5
688 689 -1.4979965E5
689 688 -1.5080065E5
689 689 3.006003E5
689 690 -1.4979965E5
690 689 -1.5080065E5
690 690 3.006003E5
690 691 -1.4979965E5
691 690 -1.5080065E5
691 691 3.006003E5
691 692 -1.4979965E5
692 691 -1.5080065E5
692 692 3.006003E5
692 693 -1.4979965E5
693 692 -1.5080065E5
693 693 3.006003E5
693 694 -1.4979965E5
694 693 -1.5080065E5
694 694 3.006003E5
694 695 -1.4979965E5
695 694 -1.5080065E5
695 695 3.006003E5
695 696 -1.4979965E5
696 695 -1.5080065E5
696 696 3.006003E5
696 697 -1.4979965E5
697 696 -1.5080065E5
697 697 3.006003E5
697 698 -1.4979965E5
698 697 -1.5080065E5
698 698 3.006003E5
698 699 -1.4979965E5
699 698 -1.5080065E5
699 699 3.006003E5
699 700 -1.4979965E5
700 699 -1.5080065E5
700 700 3.006003E5
700 701 -1.4979965E5
701 700 -1.5080065E5
701 701 3.006003E5
701 702 -1.4979965E5
702 701 -1.5080065E5
702 702 3.006003E5
702 703 -1.4979965E5
703 702 -1.5080065E5
703 703 3.006003E5
703 704 -1.4979965E5
704 703 -1.5080065E5
704 704 3.006003E5
704 705 -1.4979965E5
705 704 -1.5080065E5
705 705 3.006003E5
705 706 -1.4979965E5
706 705 -1.5080065E5
706 706 3.006003E5
706 707 -1.4979965E5
707 706 -1.5080065E5
707 707 3.006003E5
707 708 -1.4979965E5
708 707 -1.5080065E5
708 708 3.006003E5
708 709 -1.4979965E5
709 708 -1.5080065E5
709 709 3.006003E5
709 710 -1.4979965E5
710 709 -1.5080065E5
710 710 3.006003E5
710 711 -1.4979965E5
711 710 -1.5080065E5
711 711 3.006003E5
711 712 -1.4979965E5
712 711 -1.5080065E5
712 712 3.006003E5
712 713 -1.4979965E5
713 712 -1.5080065E5
713 713 3.006003E5
713 714 -1.4979965E5
714 713 -1.5080065E5
714 714 3.006003E5
714 715 -1.4979965E5
715 714 -1.5080065E5
715 715 3.006003E5
715 716 -1.4979965E5
716 715 -1.5080065E5
716 716 3.006003E5
716 717 -1.4979965E5
717 716 -1.5080065E5
717 717 3.006003E5
717 718 -1.4979965E5
718 717 -1.5080065E5
718 718 3.006003E5
718 719 -1.4979965E5
719 718 -1.5080065E5
719 719 3.006003E5
719 720 -1.4979965E5
720 719 -1.5080065E5
720 720 3.006003E5
720 721 -1.4979965E5
721 720 -1.5080065E5
721 721 3.006003E5
721 722 -1.4979965E5
722 721 -1.5080065E5
722 722 3.006003E5
722 723 -1.4979965E5
723 722 -1.5080065E5
723 723 3.006003E5
723 724 -1.4979965E5
724 723 -1.5080065E5
724 724 3.006003E5
724 725 -1.4979965E5
725 724 -1.5080065E5
725 725 3.006003E5
725 726 -1.4979965E5
726 725 -1.5080065E5
726 726 3.006003E5
726 727 -1.4979965E5
727 726 -1.5080065E5
727 727 3.006003E5
727 728 -1.4979965E5
728 727 -1.5080065E5
728 728 3.006003E5
728 729 -1.4979965E5
729 728 -1.5080065E5
729 729 3.006003E5
729 730 -1.4979965E5
730 729 -1.5080065E5
730 730 3.006003E5
730 731 -1.4979965E5
731 730 -1.5080065E5
731 731 3.006003E5
731 732 -1.4979965E5
732 731 -1.5080065E5
732 732 3.006003E5
732 733 -1.4979965E5
733 732 -1.5080065E5
733 733 3.006003E5
733 734 -1.4979965E5
734 733 -1.5080065E5
734 734 3.006003E5
734 735 -1.4979965E5
735 734 -1.5080065E5
735 735 3.006003E5
735 736 -1.4979965E5
736 735 -1.5080065E5
736 736 3.006003E5
736 737 -1.4979965E5
737 736 -1.5080065E5
737 737 3.006003E5
737 738 -1.4979965E5
738 737 -1.5080065E5
738 738 3.006003E5
738 739 -1.4979965E5
739 738 -1.5080065E5
739 739 3.006003E5
739 740 -1.4979965E5
740 739 -1.5080065E5
740 740 3.006003E5
740 741 -1.4979965E5
741 740 -1.5080065E5
741 741 3.006003E5
741 742 -1.4979965E5
742 741 -1.5080065E5
742 742 3.006003E5
742 743 -1.4979965E5
743 742 -1.5080065E5
743 743 3.006003E5
743 744 -1.4979965E5
744 743 -1.5080065E5
744 744 3.006003E5
744 745 -1.4979965E5
745 744 -1.5080065E5
745 745 3.006003E5
745 746 -1.4979965E5
746 745 -1.5080065E5
746 746 3.006003E5
746 747 -1.4979965E5
747 746 -1.5080065E5
747 747 3.006003E5
747 748 -1.4979965E5
748 747 -1.5080065E5
748 748 3.006003E5
748 749 -1.4979965E5
749 748 -1.5080065E5
749 749 3.006003E5
749 750 -1.4979965E5
750 749 -1.5080065E5
750 750 3.006003E5
750 751 -1.4979965E5
751 750 -1.5080065E5
751 751 3.006003E5
751 752 -1.4979965E5
752 751 -1.5080065E5
752 752 3.006003E5
752 753 -1.4979965E5
753 752 -1.5080065E5
753 753 3.006003E5
753 754 -1.4979965E5
754 753 -1.5080065E5
754 754 3.006003E5
754 755 -1.4979965E5
755 754 -1.5080065E5
755 755 3.006003E5
755 756 -1.4979965E5
756 755 -1.5080065E5
756 756 3.006003E5
756 757 -1.4979965E5
757 756 -1.5080065E5
757 757 3.006003E5
757 758 -1.4979965E5
758 757 -1.5080065E5
758 758 3.006003E5
758 759 -1.4979965E5
759 758 -1.5080065E5
759 759 3.006003E5
759 760 -1.4979965E5
760 759 -1.5080065E5
760 760 3.006003E5
760 761 -1.4979965E5
761 760 -1.5080065E5
761 761 3.006003E5
761 762 -1.4979965E5
762 761 -1.5080065E5
762 762 3.006003E5
762 763 -1.4979965E5
763 762 -1.5080065E5
763 763 3.006003E5
763 764 -1.4979965E5
764 763 -1.5080065E5
764 764 3.006003E5
764 765 -1.4979965E5
765 764 -1.5080065E5
765 765 3.006003E5
765 766 -1.4979965E5
766 765 -1.5080065E5
766 766 3.006003E5
766 767 -1.4979965E5
767 766 -1.5080065E5
767 767 3.006003E5
767 768 -1.4979965E5
768 767 -1.5080065E5
768 768 3.006003E5
768 769 -1.4979965E5
769 768 -1.5080065E5
769 769 3.006003E5
769 770 -1.4979965E5
770 769 -1.5080065E5
770 770 3.006003E5
770 771 -1.4979965E5
771 770 -1.5080065E5
771 771 3.006003E5
771 772 -1.4979965E5
772 771 -1.5080065E5
772 772 3.006003E5
772 773 -1.4979965E5
773 772 -1.5080065E5
773 773 3.006003E5
773 774 -1.4979965E5
774 773 -1.5080065E5
774 774 3.006003E5
774 775 -1.4979965E5
775 774 -1.5080065E5
775 775 3.006003E5
775 776 -1.4979965E5
776 775 -1.5080065E5
776 776 3.006003E5
776 777 -1.4979965E5
777 776 -1.5080065E5
777 777 3.006003E5
777 778 -1.4979965E5
778 777 -1.5080065E5
778 778 3.006003E5
778 779 -1.4979965E5
779 778 -1.5080065E5
779 779 3.006003E5
779 780 -1.4979965E5
780 779 -1.5080065E5
780 780 3.006003E5
780 781 -1.4979965E5
781 780 -1.5080065E5
781 781 3.006003E5
781 782 -1.4979965E5
782 781 -1.5080065E5
782 782 3.006003E5
782 783 -1.4979965E5
783 782 -1.5080065E5
783 783 3.006003E5
783 784 -1.4979965E5
784 783 -1.5080065E5
784 784 3.006003E5
784 785 -1.4979965E5
785 784 -1.5080065E5
785 785 3.006003E5
785 786 -1.4979965E5
786 785 -1.5080065E5
786 786 3.006003E5
786 787 -1.4979965E5
787 786 -1.5080065E5
787 787 3.006003E5
787 788 -1.4979965E5
788 787 -1.5080065E5
788 788 3.006003E5
788 789 -1.4979965E5
789 788 -1.5080065E5
789 789 3.006003E5
789 790 -1.4979965E5
790 789 -1.5080065E5
790 790 3.006003E5
790 791 -1.4979965E5
791 790 -1.5080065E5
791 791 3.006003E5
791 792 -1.4979965E5
792 791 -1.5080065E5
792 792 3.006003E5
792 793 -1.4979965E5
793 792 -1.5080065E5
793 793 3.006003E5
793 794 -1.4979965E5
794 793 -1.5080065E5
794 794 3.006003E5
794 795 -1.4979965E5
795 794 -1.5080065E5
795 795 3.006003E5
795 796 -1.4979965E5
796 795 -1.5080065E5
796 796 3.006003E5
796 797 -1.4979965E5
797 796 -1.5080065E5
797 797 3.006003E5
797 798 -1.4979965E5
798 797 -1.5080065E5
798 798 3.006003E5
798 799 -1.4979965E5
799 798 -1.5080065E5
799 799 3.006003E5
799 800 -1.4979965E5
800 799 -1.5080065E5
800 800 3.006003E5
800 801 -1.4979965E5
801 800 -1.5080065E5
801 801 3.006003E5
801 802 -1.4979965E5
802 801 -1.5080065E5
802 802 3.006003E5
802 803 -1.4979965E5
803 802 -1.5080065E5
803 803 3.006003E5
803 804 -1.4979965E5
804 803 -1.5080065E5
804 804 3.006003E5
804 805 -1.4979965E5
805 804 -1.5080065E5
805 805 3.006003E5
805 806 -1.4979965E5
806 805 -1.5080065E5
806 806 3.006003E5
806 807 -1.4979965E5
807 806 -1.5080065E5
807 807 3.006003E5
807 808 -1.4979965E5
808 807 -1.5080065E5
808 808 3.006003E5
808 809 -1.4979965E5
809 808 -1.5080065E5
809 809 3.006003E5
809 810 -1.4979965E5
810 809 -1.5080065E5
810 810 3.006003E5
810 811 -1.4979965E5
811 810 -1.5080065E5
811 811 3.006003E5
811 812 -1.4979965E5
812 811 -1.5080065E5
812 812 3.006003E5
812 813 -1.4979965E5
813 812 -1.5080065E5
813 813 3.006003E5
813 814 -1.4979965E5
814 813 -1.5080065E5
814 814 3.006003E5
814 815 -1.4979965E5
815 814 -1.5080065E5
815 815 3.006003E5
815 816 -1.4979965E5
816 815 -1.5080065E5
816 816 3.006003E5
816 817 -1.4979965E5
817 816 -1.5080065E5
817 817 3.006003E5
817 818 -1.4979965E5
818 817 -1.5080065E5
818 818 3.006003E5
818 819 -1.4979965E5
819 818 -1.5080065E5
819 819 3.006003E5
819 820 -1.4979965E5
820 819 -1.5080065E5
820 820 3.006003E5
820 821 -1.4979965E5
821 820 -1.5080065E5
821 821 3.006003E5
821 822 -1.4979965E5
822 821 -1.5080065E5
822 822 3.006003E5
822 823 -1.4979965E5
823 822 -1.5080065E5
823 823 3.006003E5
823 824 -1.4979965E5
824 823 -1.5080065E5
824 824 3.006003E5
824 825 -1.4979965E5
825 824 -1.5080065E5
825 825 3.006003E5
825 826 -1.4979965E5
826 825 -1.5080065E5
826 826 3.006003E5
826 827 -1.4979965E5
827 826 -1.5080065E5
827 827 3.006003E5
827 828 -1.4979965E5
828 827 -1.5080065E5
828 828 3.006003E5
828 829 -1.4979965E5
829 828 -1.5080065E5
829 829 3.006003E5
829 830 -1.4979965E5
830 829 -1.5080065E5
830 830 3.006003E5
830 831 -1.4979965E5
831 830 -1.5080065E5
831 831 3.006003E5
831 832 -1.4979965E5
832 831 -1.5080065E5
832 832 3.006003E5
832 833 -1.4979965E5
833 832 -1.5080065E5
833 833 3.006003E5
833 834 -1.4979965E5
834 833 -1.5080065E5
834 834 3.006003E5
834 835 -1.4979965E5
835 834 -1.5080065E5
835 835 3.006003E5
835 836 -1.4979965E5
836 835 -1.5080065E5
836 836 3.006003E5
836 837 -1.4979965E5
837 836 -1.5080065E5
837 837 3.006003E5
837 838 -1.4979965E5
838 837 -1.5080065E5
838 838 3.006003E5
838 839 -1.4979965E5
839 838 -1.5080065E5
839 839 3.006003E5
839 840 -1.4979965E5
840 839 -1.5080065E5
840 840 3.006003E5
840 841 -1.4979965E5
841 840 -1.5080065E5
841 841 3.006003E5
841 842 -1.4979965E5
842 841 -1.5080065E5
842 842 3.006003E5
842 843 -1.4979965E5
843 842 -1.5080065E5
843 843 3.006003E5
843 844 -1.4979965E5
844 843 -1.5080065E5
844 844 3.006003E5
844 845 -1.4979965E5
845 844 -1.5080065E5
845 845 3.006003E5
845 846 -1.4979965E5
846 845 -1.5080065E5
846 846 3.006003E5
846 847 -1.4979965E5
847 846 -1.5080065E5
847 847 3.006003E5
847 848 -1.4979965E5
848 847 -1.5080065E5
848 848 3.006003E5
848 849 -1.4979965E5
849 848 -1.5080065E5
849 849 3.006003E5
849 850 -1.4979965E5
850 849 -1.5080065E5
850 850 3.006003E5
850 851 -1.4979965E5
851 850 -1.5080065E5
851 851 3.006003E5
851 852 -1.4979965E5
852 851 -1.5080065E5
852 852 3.006003E5
852 853 -1.4979965E5
853 852 -1.5080065E5
853 853 3.006003E5
853 854 -1.4979965E5
854 853 -1.5080065E5
854 854 3.006003E5
854 855 -1.4979965E5
855 854 -1.5080065E5
855 855 3.006003E5
855 856 -1.4979965E5
856 855 -1.5080065E5
856 856 3.006003E5
856 857 -1.4979965E5
857 856 -1.5080065E5
857 857 3.006003E5
857 858 -1.4979965E5
858 857 -1.5080065E5
858 858 3.006003E5
858 859 -1.4979965E5
859 858 -1.5080065E5
859 859 3.006003E5
859 860 -1.4979965E5
860 859 -1.5080065E5
860 860 3.006003E5
860 861 -1.4979965E5
861 860 -1.5080065E5
861 861 3.006003E5
861 862 -1.4979965E5
862 861 -1.5080065E5
862 862 3.006003E5
862 863 -1.4979965E5
863 862 -1.5080065E5
863 863 3.006003E5
863 864 -1.4979965E5
864 863 -1.5080065E5
864 864 3.006003E5
864 865 -1.4979965E5
865 864 -1.5080065E5
865 865 3.006003E5
865 866 -1.4979965E5
866 865 -1.5080065E5
866 866 3.006003E5
866 867 -1.4979965E5
867 866 -1.5080065E5
867 867 3.006003E5
867 868 -1.4979965E5
868 867 -1.5080065E5
868 868 3.006003E5
868 869 -1.4979965E5
869 868 -1.5080065E5
869 869 3.006003E5
869 870 -1.4979965E5
870 869 -1.5080065E5
870 870 3.006003E5
870 871 -1.4979965E5
871 870 -1.5080065E5
871 871 3.006003E5
871 872 -1.4979965E5
872 871 -1.5080065E5
872 872 3.006003E5
872 873 -1.4979965E5
873 872 -1.5080065E5
873 873 3.006003E5
873 874 -1.4979965E5
874 873 -1.5080065E5
874 874 3.006003E5
874 875 -1.4979965E5
875 874 -1.5080065E5
875 875 3.006003E5
875 876 -1.4979965E5
876 875 -1.5080065E5
876 876 3.006003E5
876 877 -1.4979965E5
877 876 -1.5080065E5
877 877 3.006003E5
877 878 -1.4979965E5
878 877 -1.5080065E5
878 878 3.006003E5
878 879 -1.4979965E5
879 878 -1.5080065E5
879 879 3.006003E5
879 880 -1.4979965E5
880 879 -1.5080065E5
880 880 3.006003E5
880 881 -1.4979965E5
881 880 -1.5080065E5
881 881 3.006003E5
881 882 -1.4979965E5
882 881 -1.5080065E5
882 882 3.006003E5
882 883 -1.4979965E5
883 882 -1.5080065E5
883 883 3.006003E5
883 884 -1.4979965E5
884 883 -1.5080065E5
884 884 3.006003E5
884 885 -1.4979965E5
885 884 -1.5080065E5
885 885 3.006003E5
885 886 -1.4979965E5
886 885 -1.5080065E5
886 886 3.006003E5
886 887 -1.4979965E5
887 886 -1.5080065E5
887 887 3.006003E5
887 888 -1.4979965E5
888 887 -1.5080065E5
888 888 3.006003E5
888 889 -1.4979965E5
889 888 -1.5080065E5
889 889 3.006003E5
889 890 -1.4979965E5
890 889 -1.5080065E5
890 890 3.006003E5
890 891 -1.4979965E5
891 890 -1.5080065E5
891 891 3.006003E5
891 892 -1.4979965E5
892 891 -1.5080065E5
892 892 3.006003E5
892 893 -1.4979965E5
893 892 -1.5080065E5
893 893 3.006003E5
893 894 -1.4979965E5
894 893 -1.5080065E5
894 894 3.006003E5
894 895 -1.4979965E5
895 894 -1.5080065E5
895 895 3.006003E5
895 896 -1.4979965E5
896 895 -1.5080065E5
896 896 3.006003E5
896 897 -1.4979965E5
897 896 -1.5080065E5
897 897 3.006003E5
897 898 -1.4979965E5
898 897 -1.5080065E5
898 898 3.006003E5
898 899 -1.4979965E5
899 898 -1.5080065E5
899 899 3.006003E5
899 900 -1.4979965E5
900 899 -1.5080065E5
900 900 3.006003E5
900 901 -1.4979965E5
901 900 -1.5080065E5
901 901 3.006003E5
901 902 -1.4979965E5
902 901 -1.5080065E5
902 902 3.006003E5
902 903 -1.4979965E5
903 902 -1.5080065E5
903 903 3.006003E5
903 904 -1.4979965E5
904 903 -1.5080065E5
904 904 3.006003E5
904 905 -1.4979965E5
905 904 -1.5080065E5
905 905 3.006003E5
905 906 -1.4979965E5
906 905 -1.5080065E5
906 906 3.006003E5
906 907 -1.4979965E5
907 906 -1.5080065E5
907 907 3.006003E5
907 908 -1.4979965E5
908 907 -1.5080065E5
908 908 3.006003E5
908 909 -1.4979965E5
909 908 -1.5080065E5
909 909 3.006003E5
909 910 -1.4979965E5
910 909 -1.5080065E5
910 910 3.006003E5
910 911 -1.4979965E5
911 910 -1.5080065E5
911 911 3.006003E5
911 912 -1.4979965E5
912 911 -1.5080065E5
912 912 3.006003E5
912 913 -1.4979965E5
913 912 -1.5080065E5
913 913 3.006003E5
913 914 -1.4979965E5
914 913 -1.5080065E5
914 914 3.006003E5
914 915 -1.4979965E5
915 914 -1.5080065E5
915 915 3.006003E5
915 916 -1.4979965E5
916 915 -1.5080065E5
916 916 3.006003E5
916 917 -1.4979965E5
917 916 -1.5080065E5
917 917 3.006003E5
917 918 -1.4979965E5
918 917 -1.5080065E5
918 918 3.006003E5
918 919 -1.4979965E5
919 918 -1.5080065E5
919 919 3.006003E5
919 920 -1.4979965E5
920 919 -1.5080065E5
920 920 3.006003E5
920 921 -1.4979965E5
921 920 -1.5080065E5
921 921 3.006003E5
921 922 -1.4979965E5
922 921 -1.5080065E5
922 922 3.006003E5
922 923 -1.4979965E5
923 922 -1.5080065E5
923 923 3.006003E5
923 924 -1.4979965E5
924 923 -1.5080065E5
924 924 3.006003E5
924 925 -1.4979965E5
925 924 -1.5080065E5
925 925 3.006003E5
925 926 -1.4979965E5
926 925 -1.5080065E5
926 926 3.006003E5
926 927 -1.4979965E5
927 926 -1.5080065E5
927 927 3.006003E5
927 928 -1.4979965E5
928 927 -1.5080065E5
928 928 3.006003E5
928 929 -1.4979965E5
929 928 -1.5080065E5
929 929 3.006003E5
929 930 -1.4979965E5
930 929 -1.5080065E5
930 930 3.006003E5
930 931 -1.4979965E5
931 930 -1.5080065E5
931 931 3.006003E5
931 932 -1.4979965E5
932 931 -1.5080065E5
932 932 3.006003E5
932 933 -1.4979965E5
933 932 -1.5080065E5
933 933 3.006003E5
933 934 -1.4979965E5
934 933 -1.5080065E5
934 934 3.006003E5
934 935 -1.4979965E5
935 934 -1.5080065E5
935 935 3.006003E5
935 936 -1.4979965E5
936 935 -1.5080065E5
936 936 3.006003E5
936 937 -1.4979965E5
937 936 -1.5080065E5
937 937 3.006003E5
937 938 -1.4979965E5
938 937 -1.5080065E5
938 938 3.006003E5
938 939 -1.4979965E5
939 938 -1.5080065E5
939 939 3.006003E5
939 940 -1.4979965E5
940 939 -1.5080065E5
940 940 3.006003E5
940 941 -1.4979965E5
941 940 -1.5080065E5
941 941 3.006003E5
941 942 -1.4979965E5
942 941 -1.5080065E5
942 942 3.006003E5
942 943 -1.4979965E5
943 942 -1.5080065E5
943 943 3.006003E5
943 944 -1.4979965E5
944 943 -1.5080065E5
944 944 3.006003E5
944 945 -1.4979965E5
945 944 -1.5080065E5
945 945 3.006003E5
945 946 -1.4979965E5
946 945 -1.5080065E5
946 946 3.006003E5
946 947 -1.4979965E5
947 946 -1.5080065E5
947 947 3.006003E5
947 948 -1.4979965E5
948 947 -1.5080065E5
948 948 3.006003E5
948 949 -1.4979965E5
949 948 -1.5080065E5
949 949 3.006003E5
949 950 -1.4979965E5
950 949 -1.5080065E5
950 950 3.006003E5
950 951 -1.4979965E5
951 950 -1.5080065E5
951 951 3.006003E5
951 952 -1.4979965E5
952 951 -1.5080065E5
952 952 3.006003E5
952 953 -1.4979965E5
953 952 -1.5080065E5
953 953 3.006003E5
953 954 -1.4979965E5
954 953 -1.5080065E5
954 954 3.006003E5
954 955 -1.4979965E5
955 954 -1.5080065E5
955 955 3.006003E5
955 956 -1.4979965E5
956 955 -1.5080065E5
956 956 3.006003E5
956 957 -1.4979965E5
957 956 -1.5080065E5
957 957 3.006003E5
957 958 -1.4979965E5
958 957 -1.5080065E5
958 958 3.006003E5
958 959 -1.4979965E5
959 958 -1.5080065E5
959 959 3.006003E5
959 960 -1.4979965E5
960 959 -1.5080065E5
960 960 3.006003E5
960 961 -1.4979965E5
961 960 -1.5080065E5
961 961 3.006003E5
961 962 -1.4979965E5
962 961 -1.5080065E5
962 962 3.006003E5
962 963 -1.4979965E5
963 962 -1.5080065E5
963 963 3.006003E5
963 964 -1.4979965E5
964 963 -1.5080065E5
964 964 3.006003E5
964 965 -1.4979965E5
965 964 -1.5080065E5
965 965 3.006003E5
965 966 -1.4979965E5
966 965 -1.5080065E5
966 966 3.006003E5
966 967 -1.4979965E5
967 966 -1.5080065E5
967 967 3.006003E5
967 968 -1.4979965E5
968 967 -1.5080065E5
968 968 3.006003E5
968 969 -1.4979965E5
969 968 -1.5080065E5
969 969 3.006003E5
969 970 -1.4979965E5
970 969 -1.5080065E5
970 970 3.006003E5
970 971 -1.4979965E5
971 970 -1.5080065E5
971 971 3.006003E5
971 972 -1.4979965E5
972 971 -1.5080065E5
972 972 3.006003E5
972 973 -1.4979965E5
973 972 -1.5080065E5
973 973 3.006003E5
973 974 -1.4979965E5
974 973 -1.5080065E5
974 974 3.006003E5
974 975 -1.4979965E5
975 974 -1.5080065E5
975 975 3.006003E5
975 976 -1.4979965E5
976 975 -1.5080065E5
976 976 3.006003E5
976 977 -1.4979965E5
977 976 -1.5080065E5
977 977 3.006003E5
977 978 -1.4979965E5
978 977 -1.5080065E5
978 978 3.006003E5
978 979 -1.4979965E5
979 978 -1.5080065E5
979 979 3.006003E5
979 980 -1.4979965E5
980 979 -1.5080065E5
980 980 3.006003E5
980 981 -1.4979965E5
981 980 -1.5080065E5
981 981 3.006003E5
981 982 -1.4979965E5
982 981 -1.5080065E5
982 982 3.006003E5
982 983 -1.4979965E5
983 982 -1.5080065E5
983 983 3.006003E5
983 984 -1.4979965E5
984 983 -1.5080065E5
984 984 3.006003E5
984 985 -1.4979965E5
985 984 -1.5080065E5
985 985 3.006003E5
985 986 -1.4979965E5
986 985 -1.5080065E5
986 986 3.006003E5
986 987 -1.4979965E5
987 986 -1.5080065E5
987 987 3.006003E5
987 988 -1.4979965E5
988 987 -1.5080065E5
988 988 3.006003E5
988 989 -1.4979965E5
989 988 -1.5080065E5
989 989 3.006003E5
989 990 -1.4979965E5
990 989 -1.5080065E5
990 990 3.006003E5
990 991 -1.4979965E5
991 990 -1.5080065E5
991 991 3.006003E5
991 992 -1.4979965E5
992 991 -1.5080065E5
992 992 3.006003E5
992 993 -1.4979965E5
993 992 -1.5080065E5
993 993 3.006003E5
993 994 -1.4979965E5
994 993 -1.5080065E5
994 994 3.006003E5
994 995 -1.4979965E5
995 994 -1.5080065E5
995 995 3.006003E5
995 996 -1.4979965E5
996 995 -1.5080065E5
996 996 3.006003E5
996 997 -1.4979965E5
997 996 -1.5080065E5
997 997 3.006003E5
997 998 -1.4979965E5
998 997 -1.5080065E5
998 998 3.006003E5
998 999 -1.4979965E5
999 998 -1.5080065E5
999 999 3.006003E5
999 1000 -1.4979965E5
1000 999 -1.5080065E5
1000 1000 3.006003E5
