%%MatrixMarket matrix coordinate real general
% 1D convection-diffusion (-eps*u'' + beta*u' = f), central FD, n=1500, eps=0.07, beta=1.0, kappa~=148003
1500 1500 4498
1 1 3.1542014E5
1 2 -1.5695957E5
2 1 -1.5846057E5
2 2 3.1542014E5
2 3 -1.5695957E5
3 2 -1.5846057E5
3 3 3.1542014E5
3 4 -1.5695957E5
4 3 -1.5846057E5
4 4 3.1542014E5
4 5 -1.5695957E5
5 4 -1.5846057E5
5 5 3.1542014E5
5 6 -1.5695957E5
6 5 -1.5846057E5
6 6 3.1542014E5
6 7 -1.5695957E5
7 6 -1.5846057E5
7 7 3.1542014E5
7 8 -1.5695957E5
8 7 -1.5846057E5
8 8 3.1542014E5
8 9 -1.5695957E5
9 8 -1.5846057E5
9 9 3.1542014E5
9 10 -1.5695957E5
10 9 -1.5846057E5
10 10 3.1542014E5
10 11 -1.5695957E5
11 10 -1.5846057E5
11 11 3.1542014E5
11 12 -1.5695957E5
12 11 -1.5846057E5
12 12 3.1542014E5
12 13 -1.5695957E5
13 12 -1.5846057E5
13 13 3.1542014E5
13 14 -1.5695957E5
14 13 -1.5846057E5
14 14 3.1542014E5
14 15 -1.5695957E5
15 14 -1.5846057E5
15 15 3.1542014E5
15 16 -1.5695957E5
16 15 -1.5846057E5
16 16 3.1542014E5
16 17 -1.5695957E5
17 16 -1.5846057E5
17 17 3.1542014E5
17 18 -1.5695957E5
18 17 -1.5846057E5
18 18 3.1542014E5
18 19 -1.5695957E5
19 18 -1.5846057E5
19 19 3.1542014E5
19 20 -1.5695957E5
20 19 -1.5846057E5
20 20 3.1542014E5
20 21 -1.5695957E5
21 20 -1.5846057E5
21 21 3.1542014E5
21 22 -1.5695957E5
22 21 -1.5846057E5
22 22 3.1542014E5
22 23 -1.5695957E5
23 22 -1.5846057E5
23 23 3.1542014E5
23 24 -1.5695957E5
24 23 -1.5846057E5
24 24 3.1542014E5
24 25 -1.5695957E5
25 24 -1.5846057E5
25 25 3.1542014E5
25 26 -1.5695957E5
26 25 -1.5846057E5
26 26 3.1542014E5
26 27 -1.5695957E5
27 26 -1.5846057E5
27 27 3.1542014E5
27 28 -1.5695957E5
28 27 -1.5846057E5
28 28 3.1542014E5
28 29 -1.5695957E5
29 28 -1.5846057E5
29 29 3.1542014E5
29 30 -1.5695957E5
30 29 -1.5846057E5
30 30 3.1542014E5
30 31 -1.5695957E5
31 30 -1.5846057E5
31 31 3.1542014E5
31 32 -1.5695957E5
32 31 -1.5846057E5
32 32 3.1542014E5
32 33 -1.5695957E5
33 32 -1.5846057E5
33 33 3.1542014E5
33 34 -1.5695957E5
34 33 -1.5846057E5
34 34 3.1542014E5
34 35 -1.5695957E5
35 34 -1.5846057E5
35 35 3.1542014E5
35 36 -1.5695957E5
36 35 -1.5846057E5
36 36 3.1542014E5
36 37 -1.5695957E5
37 36 -1.5846057E5
37 37 3.1542014E5
37 38 -1.5695957E5
38 37 -1.5846057E5
38 38 3.1542014E5
38 39 -1.5695957E5
39 38 -1.5846057E5
39 39 3.1542014E5
39 40 -1.5695957E5
40 39 -1.5846057E5
40 40 3.1542014E5
40 41 -1.5695957E5
41 40 -1.5846057E5
41 41 3.1542014E5
41 42 -1.5695957E5
42 41 -1.5846057E5
42 42 3.1542014E5
42 43 -1.5695957E5
43 42 -1.5846057E5
43 43 3.1542014E5
43 44 -1.5695957E5
44 43 -1.5846057E5
44 44 3.1542014E5
44 45 -1.5695957E5
45 44 -1.5846057E5
45 45 3.1542014E5
45 46 -1.5695957E5
46 45 -1.5846057E5
46 46 3.1542014E5
46 47 -1.5695957E5
47 46 -1.5846057E5
47 47 3.1542014E5
47 48 -1.5695957E5
48 47 -1.5846057E5
48 48 3.1542014E5
48 49 -1.5695957E5
49 48 -1.5846057E5
49 49 3.1542014E5
49 50 -1.5695957E5
50 49 -1.5846057E5
50 50 3.1542014E5
50 51 -1.5695957E5
51 50 -1.5846057E5
51 51 3.1542014E5
51 52 -1.5695957E5
52 51 -1.5846057E5
52 52 3.1542014E5
52 53 -1.5695957E5
53 52 -1.5846057E5
53 53 3.1542014E5
53 54 -1.5695957E5
54 53 -1.5846057E5
54 54 3.1542014E5
54 55 -1.5695957E5
55 54 -1.5846057E5
55 55 3.1542014E5
55 56 -1.5695957E5
56 55 -1.5846057E5
56 56 3.1542014E5
56 57 -1.5695957E5
57 56 -1.5846057E5
57 57 3.1542014E5
57 58 -1.5695957E5
58 57 -1.5846057E5
58 58 3.1542014E5
58 59 -1.5695957E5
59 58 -1.5846057E5
59 59 3.1542014E5
59 60 -1.5695957E5
60 59 -1.5846057E5
60 60 3.1542014E5
60 61 -1.5695957E5
61 60 -1.5846057E5
61 61 3.1542014E5
61 62 -1.5695957E5
62 61 -1.5846057E5
62 62 3.1542014E5
62 63 -1.5695957E5
63 62 -1.5846057E5
63 63 3.1542014E5
63 64 -1.5695957E5
64 63 -1.5846057E5
64 64 3.1542014E5
64 65 -1.5695957E5
65 64 -1.5846057E5
65 65 3.1542014E5
65 66 -1.5695957E5
66 65 -1.5846057E5
66 66 3.1542014E5
66 67 -1.5695957E5
67 66 -1.5846057E5
67 67 3.1542014E5
67 68 -1.5695957E5
68 67 -1.5846057E5
68 68 3.1542014E5
68 69 -1.5695957E5
69 68 -1.5846057E5
69 69 3.1542014E5
69 70 -1.5695957E5
70 69 -1.5846057E5
70 70 3.1542014E5
70 71 -1.5695957E5
71 70 -1.5846057E5
71 71 3.1542014E5
71 72 -1.5695957E5
72 71 -1.5846057E5
72 72 3.1542014E5
72 73 -1.5695957E5
73 72 -1.5846057E5
73 73 3.1542014E5
73 74 -1.5695957E5
74 73 -1.5846057E5
74 74 3.1542014E5
74 75 -1.5695957E5
75 74 -1.5846057E5
75 75 3.1542014E5
75 76 -1.5695957E5
76 75 -1.5846057E5
76 76 3.1542014E5
76 77 -1.5695957E5
77 76 -1.5846057E5
77 77 3.1542014E5
77 78 -1.5695957E5
78 77 -1.5846057E5
78 78 3.1542014E5
78 79 -1.5695957E5
79 78 -1.5846057E5
79 79 3.1542014E5
79 80 -1.5695957E5
80 79 -1.5846057E5
80 80 3.1542014E5
80 81 -1.5695957E5
81 80 -1.5846057E5
81 81 3.1542014E5
81 82 -1.5695957E5
82 81 -1.5846057E5
82 82 3.1542014E5
82 83 -1.5695957E5
83 82 -1.5846057E5
83 83 3.1542014E5
83 84 -1.5695957E5
84 83 -1.5846057E5
84 84 3.1542014E5
84 85 -1.5695957E5
85 84 -1.5846057E5
85 85 3.1542014E5
85 86 -1.5695957E5
86 85 -1.5846057E5
86 86 3.1542014E5
86 87 -1.5695957E5
87 86 -1.5846057E5
87 87 3.1542014E5
87 88 -1.5695957E5
88 87 -1.5846057E5
88 88 3.1542014E5
88 89 -1.5695957E5
89 88 -1.5846057E5
89 89 3.1542014E5
89 90 -1.5695957E5
90 89 -1.5846057E5
90 90 3.1542014E5
90 91 -1.5695957E5
91 90 -1.5846057E5
91 91 3.1542014E5
91 92 -1.5695957E5
92 91 -1.5846057E5
92 92 3.1542014E5
92 93 -1.5695957E5
93 92 -1.5846057E5
93 93 3.1542014E5
93 94 -1.5695957E5
94 93 -1.5846057E5
94 94 3.1542014E5
94 95 -1.5695957E5
95 94 -1.5846057E5
95 95 3.1542014E5
95 96 -1.5695957E5
96 95 -1.5846057E5
96 96 3.1542014E5
96 97 -1.5695957E5
97 96 -1.5846057E5
97 97 3.1542014E5
97 98 -1.5695957E5
98 97 -1.5846057E5
98 98 3.1542014E5
98 99 -1.5695957E5
99 98 -1.5846057E5
99 99 3.1542014E5
99 100 -1.5695957E5
100 99 -1.5846057E5
100 100 3.1542014E5
100 101 -1.5695957E5
101 100 -1.5846057E5
101 101 3.1542014E5
101 102 -1.5695957E5
102 101 -1.5846057E5
102 102 3.1542014E5
102 103 -1.5695957E5
103 102 -1.5846057E5
103 103 3.1542014E5
103 104 -1.5695957E5
104 103 -1.5846057E5
104 104 3.1542014E5
104 105 -1.5695957E5
105 104 -1.5846057E5
105 105 3.1542014E5
105 106 -1.5695957E5
106 105 -1.5846057E5
106 106 3.1542014E5
106 107 -1.5695957E5
107 106 -1.5846057E5
107 107 3.1542014E5
107 108 -1.5695957E5
108 107 -1.5846057E5
108 108 3.1542014E5
108 109 -1.5695957E5
109 108 -1.5846057E5
109 109 3.1542014E5
109 110 -1.5695957E5
110 109 -1.5846057E5
110 110 3.1542014E5
110 111 -1.5695957E5
111 110 -1.5846057E5
111 111 3.1542014E5
111 112 -1.5695957E5
112 111 -1.5846057E5
112 112 3.1542014E5
112 113 -1.5695957E5
113 112 -1.5846057E5
113 113 3.1542014E5
113 114 -1.5695957E5
114 113 -1.5846057E5
114 114 3.1542014E5
114 115 -1.5695957E5
115 114 -1.5846057E5
115 115 3.1542014E5
115 116 -1.5695957E5
116 115 -1.5846057E5
116 116 3.1542014E5
116 117 -1.5695957E5
117 116 -1.5846057E5
117 117 3.1542014E5
117 118 -1.5695957E5
118 117 -1.5846057E5
118 118 3.1542014E5
118 119 -1.5695957E5
119 118 -1.5846057E5
119 119 3.1542014E5
119 120 -1.5695957E5
120 119 -1.5846057E5
120 120 3.1542014E5
120 121 -1.5695957E5
121 120 -1.5846057E5
121 121 3.1542014E5
121 122 -1.5695957E5
122 121 -1.5846057E5
122 122 3.1542014E5
122 123 -1.5695957E5
123 122 -1.5846057E5
123 123 3.1542014E5
123 124 -1.5695957E5
124 123 -1.5846057E5
124 124 3.1542014E5
124 125 -1.5695957E5
125 124 -1.5846057E5
125 125 3.1542014E5
125 126 -1.5695957E5
126 125 -1.5846057E5
126 126 3.1542014E5
126 127 -1.5695957E5
127 126 -1.5846057E5
127 127 3.1542014E5
127 128 -1.5695957E5
128 127 -1.5846057E5
128 128 3.1542014E5
128 129 -1.5695957E5
129 128 -1.5846057E5
129 129 3.1542014E5
129 130 -1.5695957E5
130 129 -1.5846057E5
130 130 3.1542014E5
130 131 -1.5695957E5
131 130 -1.5846057E5
131 131 3.1542014E5
131 132 -1.5695957E5
132 131 -1.5846057E5
132 132 3.1542014E5
132 133 -1.5695957E5
133 132 -1.5846057E5
133 133 3.1542014E5
133 134 -1.5695957E5
134 133 -1.5846057E5
134 134 3.1542014E5
134 135 -1.5695957E5
135 134 -1.5846057E5
135 135 3.1542014E5
135 136 -1.5695957E5
136 135 -1.5846057E5
136 136 3.1542014E5
136 137 -1.5695957E5
137 136 -1.5846057E5
137 137 3.1542014E5
137 138 -1.5695957E5
138 137 -1.5846057E5
138 138 3.1542014E5
138 139 -1.5695957E5
139 138 -1.5846057E5
139 139 3.1542014E5
139 140 -1.5695957E5
140 139 -1.5846057E5
140 140 3.1542014E5
140 141 -1.5695957E5
141 140 -1.5846057E5
141 141 3.1542014E5
141 142 -1.5695957E5
142 141 -1.5846057E5
142 142 3.1542014E5
142 143 -1.5695957E5
143 142 -1.5846057E5
143 143 3.1542014E5
143 144 -1.5695957E5
144 143 -1.5846057E5
144 144 3.1542014E5
144 145 -1.5695957E5
145 144 -1.5846057E5
145 145 3.1542014E5
145 146 -1.5695957E5
146 145 -1.5846057E5
146 146 3.1542014E5
146 147 -1.5695957E5
147 146 -1.5846057E5
147 147 3.1542014E5
147 148 -1.5695957E5
148 147 -1.5846057E5
148 148 3.1542014E5
148 149 -1.5695957E5
149 148 -1.5846057E5
149 149 3.1542014E5
149 150 -1.5695957E5
150 149 -1.5846057E5
150 150 3.1542014E5
150 151 -1.5695957E5
151 150 -1.5846057E5
151 151 3.1542014E5
151 152 -1.5695957E5
152 151 -1.5846057E5
152 152 3.1542014E5
152 153 -1.5695957E5
153 152 -1.5846057E5
153 153 3.1542014E5
153 154 -1.5695957E5
154 153 -1.5846057E5
154 154 3.1542014E5
154 155 -1.5695957E5
155 154 -1.5846057E5
155 155 3.1542014E5
155 156 -1.5695957E5
156 155 -1.5846057E5
156 156 3.1542014E5
156 157 -1.5695957E5
157 156 -1.5846057E5
157 157 3.1542014E5
157 158 -1.5695957E5
158 157 -1.5846057E5
158 158 3.1542014E5
158 159 -1.5695957E5
159 158 -1.5846057E5
159 159 3.1542014E5
159 160 -1.5695957E5
160 159 -1.5846057E5
160 160 3.1542014E5
160 161 -1.5695957E5
161 160 -1.5846057E5
161 161 3.1542014E5
161 162 -1.5695957E5
162 161 -1.5846057E5
162 162 3.1542014E5
162 163 -1.5695957E5
163 162 -1.5846057E5
163 163 3.1542014E5
163 164 -1.5695957E5
164 163 -1.5846057E5
164 164 3.1542014E5
164 165 -1.5695957E5
165 164 -1.5846057E5
165 165 3.1542014E5
165 166 -1.5695957E5
166 165 -1.5846057E5
166 166 3.1542014E5
166 167 -1.5695957E5
167 166 -1.5846057E5
167 167 3.1542014E5
167 168 -1.5695957E5
168 167 -1.5846057E5
168 168 3.1542014E5
168 169 -1.5695957E5
169 168 -1.5846057E5
169 169 3.1542014E5
169 170 -1.5695957E5
170 169 -1.5846057E5
170 170 3.1542014E5
170 171 -1.5695957E5
171 170 -1.5846057E5
171 171 3.1542014E5
171 172 -1.5695957E5
172 171 -1.5846057E5
172 172 3.1542014E5
172 173 -1.5695957E5
173 172 -1.5846057E5
173 173 3.1542014E5
173 174 -1.5695957E5
174 173 -1.5846057E5
174 174 3.1542014E5
174 175 -1.5695957E5
175 174 -1.5846057E5
175 175 3.1542014E5
175 176 -1.5695957E5
176 175 -1.5846057E5
176 176 3.1542014E5
176 177 -1.5695957E5
177 176 -1.5846057E5
177 177 3.1542014E5
177 178 -1.5695957E5
178 177 -1.5846057E5
178 178 3.1542014E5
178 179 -1.5695957E5
179 178 -1.5846057E5
179 179 3.1542014E5
179 180 -1.5695957E5
180 179 -1.5846057E5
180 180 3.1542014E5
180 181 -1.5695957E5
181 180 -1.5846057E5
181 181 3.1542014E5
181 182 -1.5695957E5
182 181 -1.5846057E5
182 182 3.1542014E5
182 183 -1.5695957E5
183 182 -1.5846057E5
183 183 3.1542014E5
183 184 -1.5695957E5
184 183 -1.5846057E5
184 184 3.1542014E5
184 185 -1.5695957E5
185 184 -1.5846057E5
185 185 3.1542014E5
185 186 -1.5695957E5
186 185 -1.5846057E5
186 186 3.1542014E5
186 187 -1.5695957E5
187 186 -1.5846057E5
187 187 3.1542014E5
187 188 -1.5695957E5
188 187 -1.5846057E5
188 188 3.1542014E5
188 189 -1.5695957E5
189 188 -1.5846057E5
189 189 3.1542014E5
189 190 -1.5695957E5
190 189 -1.5846057E5
190 190 3.1542014E5
190 191 -1.5695957E5
191 190 -1.5846057E5
191 191 3.1542014E5
191 192 -1.5695957E5
192 191 -1.5846057E5
192 192 3.1542014E5
192 193 -1.5695957E5
193 192 -1.5846057E5
193 193 3.1542014E5
193 194 -1.5695957E5
194 193 -1.5846057E5
194 194 3.1542014E5
194 195 -1.5695957E5
195 194 -1.5846057E5
195 195 3.1542014E5
195 196 -1.5695957E5
196 195 -1.5846057E5
196 196 3.1542014E5
196 197 -1.5695957E5
197 196 -1.5846057E5
197 197 3.1542014E5
197 198 -1.5695957E5
198 197 -1.5846057E5
198 198 3.1542014E5
198 199 -1.5695957E5
199 198 -1.5846057E5
199 199 3.1542014E5
199 200 -1.5695957E5
200 199 -1.5846057E5
200 200 3.1542014E5
200 201 -1.5695957E5
201 200 -1.5846057E5
201 201 3.1542014E5
201 202 -1.5695957E5
202 201 -1.5846057E5
202 202 3.1542014E5
202 203 -1.5695957E5
203 202 -1.5846057E5
203 203 3.1542014E5
203 204 -1.5695957E5
204 203 -1.5846057E5
204 204 3.1542014E5
204 205 -1.5695957E5
205 204 -1.5846057E5
205 205 3.1542014E5
205 206 -1.5695957E5
206 205 -1.5846057E5
206 206 3.1542014E5
206 207 -1.5695957E5
207 206 -1.5846057E5
207 207 3.1542014E5
207 208 -1.5695957E5
208 207 -1.5846057E5
208 208 3.1542014E5
208 209 -1.5695957E5
209 208 -1.5846057E5
209 209 3.1542014E5
209 210 -1.5695957E5
210 209 -1.5846057E5
210 210 3.1542014E5
210 211 -1.5695957E5
211 210 -1.5846057E5
211 211 3.1542014E5
211 212 -1.5695957E5
212 211 -1.5846057E5
212 212 3.1542014E5
212 213 -1.5695957E5
213 212 -1.5846057E5
213 213 3.1542014E5
213 214 -1.5695957E5
214 213 -1.5846057E5
214 214 3.1542014E5
214 215 -1.5695957E5
215 214 -1.5846057E5
215 215 3.1542014E5
215 216 -1.5695957E5
216 215 -1.5846057E5
216 216 3.1542014E5
216 217 -1.5695957E5
217 216 -1.5846057E5
217 217 3.1542014E5
217 218 -1.5695957E5
218 217 -1.5846057E5
218 218 3.1542014E5
218 219 -1.5695957E5
219 218 -1.5846057E5
219 219 3.1542014E5
219 220 -1.5695957E5
220 219 -1.5846057E5
220 220 3.1542014E5
220 221 -1.5695957E5
221 220 -1.5846057E5
221 221 3.1542014E5
221 222 -1.5695957E5
222 221 -1.5846057E5
222 222 3.1542014E5
222 223 -1.5695957E5
223 222 -1.5846057E5
223 223 3.1542014E5
223 224 -1.5695957E5
224 223 -1.5846057E5
224 224 3.1542014E5
224 225 -1.5695957E5
225 224 -1.5846057E5
225 225 3.1542014E5
225 226 -1.5695957E5
226 225 -1.5846057E5
226 226 3.1542014E5
226 227 -1.5695957E5
227 226 -1.5846057E5
227 227 3.1542014E5
227 228 -1.5695957E5
228 227 -1.5846057E5
228 228 3.1542014E5
228 229 -1.5695957E5
229 228 -1.5846057E5
229 229 3.1542014E5
229 230 -1.5695957E5
230 229 -1.5846057E5
230 230 3.1542014E5
230 231 -1.5695957E5
231 230 -1.5846057E5
231 231 3.1542014E5
231 232 -1.5695957E5
232 231 -1.5846057E5
232 232 3.1542014E5
232 233 -1.5695957E5
233 232 -1.5846057E5
233 233 3.1542014E5
233 234 -1.5695957E5
234 233 -1.5846057E5
234 234 3.1542014E5
234 235 -1.5695957E5
235 234 -1.5846057E5
235 235 3.1542014E5
235 236 -1.5695957E5
236 235 -1.5846057E5
236 236 3.1542014E5
236 237 -1.5695957E5
237 236 -1.5846057E5
237 237 3.1542014E5
237 238 -1.5695957E5
238 237 -1.5846057E5
238 238 3.1542014E5
238 239 -1.5695957E5
239 238 -1.5846057E5
239 239 3.1542014E5
239 240 -1.5695957E5
240 239 -1.5846057E5
240 240 3.1542014E5
240 241 -1.5695957E5
241 240 -1.5846057E5
241 241 3.1542014E5
241 242 -1.5695957E5
242 241 -1.5846057E5
242 242 3.1542014E5
242 243 -1.5695957E5
243 242 -1.5846057E5
243 243 3.1542014E5
243 244 -1.5695957E5
244 243 -1.5846057E5
244 244 3.1542014E5
244 245 -1.5695957E5
245 244 -1.5846057E5
245 245 3.1542014E5
245 246 -1.5695957E5
246 245 -1.5846057E5
246 246 3.1542014E5
246 247 -1.5695957E5
247 246 -1.5846057E5
247 247 3.1542014E5
247 248 -1.5695957E5
248 247 -1.5846057E5
248 248 3.1542014E5
248 249 -1.5695957E5
249 248 -1.5846057E5
249 249 3.1542014E5
249 250 -1.5695957E5
250 249 -1.5846057E5
250 250 3.1542014E5
250 251 -1.5695957E5
251 250 -1.5846057E5
251 251 3.1542014E5
251 252 -1.5695957E5
252 251 -1.5846057E5
252 252 3.1542014E5
252 253 -1.5695957E5
253 252 -1.5846057E5
253 253 3.1542014E5
253 254 -1.5695957E5
254 253 -1.5846057E5
254 254 3.1542014E5
254 255 -1.5695957E5
255 254 -1.5846057E5
255 255 3.1542014E5
255 256 -1.5695957E5
256 255 -1.5846057E5
256 256 3.1542014E5
256 257 -1.5695957E5
257 256 -1.5846057E5
257 257 3.1542014E5
257 258 -1.5695957E5
258 257 -1.5846057E5
258 258 3.1542014E5
258 259 -1.5695957E5
259 258 -1.5846057E5
259 259 3.1542014E5
259 260 -1.5695957E5
260 259 -1.5846057E5
260 260 3.1542014E5
260 261 -1.5695957E5
261 260 -1.5846057E5
261 261 3.1542014E5
261 262 -1.5695957E5
262 261 -1.5846057E5
262 262 3.1542014E5
262 263 -1.5695957E5
263 262 -1.5846057E5
263 263 3.1542014E5
263 264 -1.5695957E5
264 263 -1.5846057E5
264 264 3.1542014E5
264 265 -1.5695957E5
265 264 -1.5846057E5
265 265 3.1542014E5
265 266 -1.5695957E5
266 265 -1.5846057E5
266 266 3.1542014E5
266 267 -1.5695957E5
267 266 -1.5846057E5
267 267 3.1542014E5
267 268 -1.5695957E5
268 267 -1.5846057E5
268 268 3.1542014E5
268 269 -1.5695957E5
269 268 -1.5846057E5
269 269 3.1542014E5
269 270 -1.5695957E5
270 269 -1.5846057E5
270 270 3.1542014E5
270 271 -1.5695957E5
271 270 -1.5846057E5
271 271 3.1542014E5
271 272 -1.5695957E5
272 271 -1.5846057E5
272 272 3.1542014E5
272 273 -1.5695957E5
273 272 -1.5846057E5
273 273 3.1542014E5
273 274 -1.5695957E5
274 273 -1.5846057E5
274 274 3.1542014E5
274 275 -1.5695957E5
275 274 -1.5846057E5
275 275 3.1542014E5
275 276 -1.5695957E5
276 275 -1.5846057E5
276 276 3.1542014E5
276 277 -1.5695957E5
277 276 -1.5846057E5
277 277 3.1542014E5
277 278 -1.5695957E5
278 277 -1.5846057E5
278 278 3.1542014E5
278 279 -1.5695957E5
279 278 -1.5846057E5
279 279 3.1542014E5
279 280 -1.5695957E5
280 279 -1.5846057E5
280 280 3.1542014E5
280 281 -1.5695957E5
281 280 -1.5846057E5
281 281 3.1542014E5
281 282 -1.5695957E5
282 281 -1.5846057E5
282 282 3.1542014E5
282 283 -1.5695957E5
283 282 -1.5846057E5
283 283 3.1542014E5
283 284 -1.5695957E5
284 283 -1.5846057E5
284 284 3.1542014E5
284 285 -1.5695957E5
285 284 -1.5846057E5
285 285 3.1542014E5
285 286 -1.5695957E5
286 285 -1.5846057E5
286 286 3.1542014E5
286 287 -1.5695957E5
287 286 -1.5846057E5
287 287 3.1542014E5
287 288 -1.5695957E5
288 287 -1.5846057E5
288 288 3.1542014E5
288 289 -1.5695957E5
289 288 -1.5846057E5
289 289 3.1542014E5
289 290 -1.5695957E5
290 289 -1.5846057E5
290 290 3.1542014E5
290 291 -1.5695957E5
291 290 -1.5846057E5
291 291 3.1542014E5
291 292 -1.5695957E5
292 291 -1.5846057E5
292 292 3.1542014E5
292 293 -1.5695957E5
293 292 -1.5846057E5
293 293 3.1542014E5
293 294 -1.5695957E5
294 293 -1.5846057E5
294 294 3.1542014E5
294 295 -1.5695957E5
295 294 -1.5846057E5
295 295 3.1542014E5
295 296 -1.5695957E5
296 295 -1.5846057E5
296 296 3.1542014E5
296 297 -1.5695957E5
297 296 -1.5846057E5
297 297 3.1542014E5
297 298 -1.5695957E5
298 297 -1.5846057E5
298 298 3.1542014E5
298 299 -1.5695957E5
299 298 -1.5846057E5
299 299 3.1542014E5
299 300 -1.5695957E5
300 299 -1.5846057E5
300 300 3.1542014E5
300 301 -1.5695957E5
301 300 -1.5846057E5
301 301 3.1542014E5
301 302 -1.5695957E5
302 301 -1.5846057E5
302 302 3.1542014E5
302 303 -1.5695957E5
303 302 -1.5846057E5
303 303 3.1542014E5
303 304 -1.5695957E5
304 303 -1.5846057E5
304 304 3.1542014E5
304 305 -1.5695957E5
305 304 -1.5846057E5
305 305 3.1542014E5
305 306 -1.5695957E5
306 305 -1.5846057E5
306 306 3.1542014E5
306 307 -1.5695957E5
307 306 -1.5846057E5
307 307 3.1542014E5
307 308 -1.5695957E5
308 307 -1.5846057E5
308 308 3.1542014E5
308 309 -1.5695957E5
309 308 -1.5846057E5
309 309 3.1542014E5
309 310 -1.5695957E5
310 309 -1.5846057E5
310 310 3.1542014E5
310 311 -1.5695957E5
311 310 -1.5846057E5
311 311 3.1542014E5
311 312 -1.5695957E5
312 311 -1.5846057E5
312 312 3.1542014E5
312 313 -1.5695957E5
313 312 -1.5846057E5
313 313 3.1542014E5
313 314 -1.5695957E5
314 313 -1.5846057E5
314 314 3.1542014E5
314 315 -1.5695957E5
315 314 -1.5846057E5
315 315 3.1542014E5
315 316 -1.5695957E5
316 315 -1.5846057E5
316 316 3.1542014E5
316 317 -1.5695957E5
317 316 -1.5846057E5
317 317 3.1542014E5
317 318 -1.5695957E5
318 317 -1.5846057E5
318 318 3.1542014E5
318 319 -1.5695957E5
319 318 -1.5846057E5
319 319 3.1542014E5
319 320 -1.5695957E5
320 319 -1.5846057E5
320 320 3.1542014E5
320 321 -1.5695957E5
321 320 -1.5846057E5
321 321 3.1542014E5
321 322 -1.5695957E5
322 321 -1.5846057E5
322 322 3.1542014E5
322 323 -1.5695957E5
323 322 -1.5846057E5
323 323 3.1542014E5
323 324 -1.5695957E5
324 323 -1.5846057E5
324 324 3.1542014E5
324 325 -1.5695957E5
325 324 -1.5846057E5
325 325 3.1542014E5
325 326 -1.5695957E5
326 325 -1.5846057E5
326 326 3.1542014E5
326 327 -1.5695957E5
327 326 -1.5846057E5
327 327 3.1542014E5
327 328 -1.5695957E5
328 327 -1.5846057E5
328 328 3.1542014E5
328 329 -1.5695957E5
329 328 -1.5846057E5
329 329 3.1542014E5
329 330 -1.5695957E5
330 329 -1.5846057E5
330 330 3.1542014E5
330 331 -1.5695957E5
331 330 -1.5846057E5
331 331 3.1542014E5
331 332 -1.5695957E5
332 331 -1.5846057E5
332 332 3.1542014E5
332 333 -1.5695957E5
333 332 -1.5846057E5
333 333 3.1542014E5
333 334 -1.5695957E5
334 333 -1.5846057E5
334 334 3.1542014E5
334 335 -1.5695957E5
335 334 -1.5846057E5
335 335 3.1542014E5
335 336 -1.5695957E5
336 335 -1.5846057E5
336 336 3.1542014E5
336 337 -1.5695957E5
337 336 -1.5846057E5
337 337 3.1542014E5
337 338 -1.5695957E5
338 337 -1.5846057E5
338 338 3.1542014E5
338 339 -1.5695957E5
339 338 -1.5846057E5
339 339 3.1542014E5
339 340 -1.5695957E5
340 339 -1.5846057E5
340 340 3.1542014E5
340 341 -1.5695957E5
341 340 -1.5846057E5
341 341 3.1542014E5
341 342 -1.5695957E5
342 341 -1.5846057E5
342 342 3.1542014E5
342 343 -1.5695957E5
343 342 -1.5846057E5
343 343 3.1542014E5
343 344 -1.5695957E5
344 343 -1.5846057E5
344 344 3.1542014E5
344 345 -1.5695957E5
345 344 -1.5846057E5
345 345 3.1542014E5
345 346 -1.5695957E5
346 345 -1.5846057E5
346 346 3.1542014E5
346 347 -1.5695957E5
347 346 -1.5846057E5
347 347 3.1542014E5
347 348 -1.5695957E5
348 347 -1.5846057E5
348 348 3.1542014E5
348 349 -1.5695957E5
349 348 -1.5846057E5
349 349 3.1542014E5
349 350 -1.5695957E5
350 349 -1.5846057E5
350 350 3.1542014E5
350 351 -1.5695957E5
351 350 -1.5846057E5
351 351 3.1542014E5
351 352 -1.5695957E5
352 351 -1.5846057E5
352 352 3.1542014E5
352 353 -1.5695957E5
353 352 -1.5846057E5
353 353 3.1542014E5
353 354 -1.5695957E5
354 353 -1.5846057E5
354 354 3.1542014E5
354 355 -1.5695957E5
355 354 -1.5846057E5
355 355 3.1542014E5
355 356 -1.5695957E5
356 355 -1.5846057E5
356 356 3.1542014E5
356 357 -1.5695957E5
357 356 -1.5846057E5
357 357 3.1542014E5
357 358 -1.5695957E5
358 357 -1.5846057E5
358 358 3.1542014E5
358 359 -1.5695957E5
359 358 -1.5846057E5
359 359 3.1542014E5
359 360 -1.5695957E5
360 359 -1.5846057E5
360 360 3.1542014E5
360 361 -1.5695957E5
361 360 -1.5846057E5
361 361 3.1542014E5
361 362 -1.5695957E5
362 361 -1.5846057E5
362 362 3.1542014E5
362 363 -1.5695957E5
363 362 -1.5846057E5
363 363 3.1542014E5
363 364 -1.5695957E5
364 363 -1.5846057E5
364 364 3.1542014E5
364 365 -1.5695957E5
365 364 -1.5846057E5
365 365 3.1542014E5
365 366 -1.5695957E5
366 365 -1.5846057E5
366 366 3.1542014E5
366 367 -1.5695957E5
367 366 -1.5846057E5
367 367 3.1542014E5
367 368 -1.5695957E5
368 367 -1.5846057E5
368 368 3.1542014E5
368 369 -1.5695957E5
369 368 -1.5846057E5
369 369 3.1542014E5
369 370 -1.5695957E5
370 369 -1.5846057E5
370 370 3.1542014E5
370 371 -1.5695957E5
371 370 -1.5846057E5
371 371 3.1542014E5
371 372 -1.5695957E5
372 371 -1.5846057E5
372 372 3.1542014E5
372 373 -1.5695957E5
373 372 -1.5846057E5
373 373 3.1542014E5
373 374 -1.5695957E5
374 373 -1.5846057E5
374 374 3.1542014E5
374 375 -1.5695957E5
375 374 -1.5846057E5
375 375 3.1542014E5
375 376 -1.5695957E5
376 375 -1.5846057E5
376 376 3.1542014E5
376 377 -1.5695957E5
377 376 -1.5846057E5
377 377 3.1542014E5
377 378 -1.5695957E5
378 377 -1.5846057E5
378 378 3.1542014E5
378 379 -1.5695957E5
379 378 -1.5846057E5
379 379 3.1542014E5
379 380 -1.5695957E5
380 379 -1.5846057E5
380 380 3.1542014E5
380 381 -1.5695957E5
381 380 -1.5846057E5
381 381 3.1542014E5
381 382 -1.5695957E5
382 381 -1.5846057E5
382 382 3.1542014E5
382 383 -1.5695957E5
383 382 -1.5846057E5
383 383 3.1542014E5
383 384 -1.5695957E5
384 383 -1.5846057E5
384 384 3.1542014E5
384 385 -1.5695957E5
385 384 -1.5846057E5
385 385 3.1542014E5
385 386 -1.5695957E5
386 385 -1.5846057E5
386 386 3.1542014E5
386 387 -1.5695957E5
387 386 -1.5846057E5
387 387 3.1542014E5
387 388 -1.5695957E5
388 387 -1.5846057E5
388 388 3.1542014E5
388 389 -1.5695957E5
389 388 -1.5846057E5
389 389 3.1542014E5
389 390 -1.5695957E5
390 389 -1.5846057E5
390 390 3.1542014E5
390 391 -1.5695957E5
391 390 -1.5846057E5
391 391 3.1542014E5
391 392 -1.5695957E5
392 391 -1.5846057E5
392 392 3.1542014E5
392 393 -1.5695957E5
393 392 -1.5846057E5
393 393 3.1542014E5
393 394 -1.5695957E5
394 393 -1.5846057E5
394 394 3.1542014E5
394 395 -1.5695957E5
395 394 -1.5846057E5
395 395 3.1542014E5
395 396 -1.5695957E5
396 395 -1.5846057E5
396 396 3.1542014E5
396 397 -1.5695957E5
397 396 -1.5846057E5
397 397 3.1542014E5
397 398 -1.5695957E5
398 397 -1.5846057E5
398 398 3.1542014E5
398 399 -1.5695957E5
399 398 -1.5846057E5
399 399 3.1542014E5
399 400 -1.5695957E5
400 399 -1.5846057E5
400 400 3.1542014E5
400 401 -1.5695957E5
401 400 -1.5846057E5
401 401 3.1542014E5
401 402 -1.5695957E5
402 401 -1.5846057E5
402 402 3.1542014E5
402 403 -1.5695957E5
403 402 -1.5846057E5
403 403 3.1542014E5
403 404 -1.5695957E5
404 403 -1.5846057E5
404 404 3.1542014E5
404 405 -1.5695957E5
405 404 -1.5846057E5
405 405 3.1542014E5
405 406 -1.5695957E5
406 405 -1.5846057E5
406 406 3.1542014E5
406 407 -1.5695957E5
407 406 -1.5846057E5
407 407 3.1542014E5
407 408 -1.5695957E5
408 407 -1.5846057E5
408 408 3.1542014E5
408 409 -1.5695957E5
409 408 -1.5846057E5
409 409 3.1542014E5
409 410 -1.5695957E5
410 409 -1.5846057E5
410 410 3.1542014E5
410 411 -1.5695957E5
411 410 -1.5846057E5
411 411 3.1542014E5
411 412 -1.5695957E5
412 411 -1.5846057E5
412 412 3.1542014E5
412 413 -1.5695957E5
413 412 -1.5846057E5
413 413 3.1542014E5
413 414 -1.5695957E5
414 413 -1.5846057E5
414 414 3.1542014E5
414 415 -1.5695957E5
415 414 -1.5846057E5
415 415 3.1542014E5
415 416 -1.5695957E5
416 415 -1.5846057E5
416 416 3.1542014E5
416 417 -1.5695957E5
417 416 -1.5846057E5
417 417 3.1542014E5
417 418 -1.5695957E5
418 417 -1.5846057E5
418 418 3.1542014E5
418 419 -1.5695957E5
419 418 -1.5846057E5
419 419 3.1542014E5
419 420 -1.5695957E5
420 419 -1.5846057E5
420 420 3.1542014E5
420 421 -1.5695957E5
421 420 -1.5846057E5
421 421 3.1542014E5
421 422 -1.5695957E5
422 421 -1.5846057E5
422 422 3.1542014E5
422 423 -1.5695957E5
423 422 -1.5846057E5
423 423 3.1542014E5
423 424 -1.5695957E5
424 423 -1.5846057E5
424 424 3.1542014E5
424 425 -1.5695957E5
425 424 -1.5846057E5
425 425 3.1542014E5
425 426 -1.5695957E5
426 425 -1.5846057E5
426 426 3.1542014E5
426 427 -1.5695957E5
427 426 -1.5846057E5
427 427 3.1542014E5
427 428 -1.5695957E5
428 427 -1.5846057E5
428 428 3.1542014E5
428 429 -1.5695957E5
429 428 -1.5846057E5
429 429 3.1542014E5
429 430 -1.5695957E5
430 429 -1.5846057E5
430 430 3.1542014E5
430 431 -1.5695957E5
431 430 -1.5846057E5
431 431 3.1542014E5
431 432 -1.5695957E5
432 431 -1.5846057E5
432 432 3.1542014E5
432 433 -1.5695957E5
433 432 -1.5846057E5
433 433 3.1542014E5
433 434 -1.5695957E5
434 433 -1.5846057E5
434 434 3.1542014E5
434 435 -1.5695957E5
435 434 -1.5846057E5
435 435 3.1542014E5
435 436 -1.5695957E5
436 435 -1.5846057E5
436 436 3.1542014E5
436 437 -1.5695957E5
437 436 -1.5846057E5
437 437 3.1542014E5
437 438 -1.5695957E5
438 437 -1.5846057E5
438 438 3.1542014E5
438 439 -1.5695957E5
439 438 -1.5846057E5
439 439 3.1542014E5
439 440 -1.5695957E5
440 439 -1.5846057E5
440 440 3.1542014E5
440 441 -1.5695957E5
441 440 -1.5846057E5
441 441 3.1542014E5
441 442 -1.5695957E5
442 441 -1.5846057E5
442 442 3.1542014E5
442 443 -1.5695957E5
443 442 -1.5846057E5
443 443 3.1542014E5
443 444 -1.5695957E5
444 443 -1.5846057E5
444 444 3.1542014E5
444 445 -1.5695957E5
445 444 -1.5846057E5
445 445 3.1542014E5
445 446 -1.5695957E5
446 445 -1.5846057E5
446 446 3.1542014E5
446 447 -1.5695957E5
447 446 -1.5846057E5
447 447 3.1542014E5
447 448 -1.5695957E5
448 447 -1.5846057E5
448 448 3.1542014E5
448 449 -1.5695957E5
449 448 -1.5846057E5
449 449 3.1542014E5
449 450 -1.5695957E5
450 449 -1.5846057E5
450 450 3.1542014E5
450 451 -1.5695957E5
451 450 -1.5846057E5
451 451 3.1542014E5
451 452 -1.5695957E5
452 451 -1.5846057E5
452 452 3.1542014E5
452 453 -1.5695957E5
453 452 -1.5846057E5
453 453 3.1542014E5
453 454 -1.5695957E5
454 453 -1.5846057E5
454 454 3.1542014E5
454 455 -1.5695957E5
455 454 -1.5846057E5
455 455 3.1542014E5
455 456 -1.5695957E5
456 455 -1.5846057E5
456 456 3.1542014E5
456 457 -1.5695957E5
457 456 -1.5846057E5
457 457 3.1542014E5
457 458 -1.5695957E5
458 457 -1.5846057E5
458 458 3.1542014E5
458 459 -1.5695957E5
459 458 -1.5846057E5
459 459 3.1542014E5
459 460 -1.5695957E5
460 459 -1.5846057E5
460 460 3.1542014E5
460 461 -1.5695957E5
461 460 -1.5846057E5
461 461 3.1542014E5
461 462 -1.5695957E5
462 461 -1.5846057E5
462 462 3.1542014E5
462 463 -1.5695957E5
463 462 -1.5846057E5
463 463 3.1542014E5
463 464 -1.5695957E5
464 463 -1.5846057E5
464 464 3.1542014E5
464 465 -1.5695957E5
465 464 -1.5846057E5
465 465 3.1542014E5
465 466 -1.5695957E5
466 465 -1.5846057E5
466 466 3.1542014E5
466 467 -1.5695957E5
467 466 -1.5846057E5
467 467 3.1542014E5
467 468 -1.5695957E5
468 467 -1.5846057E5
468 468 3.1542014E5
468 469 -1.5695957E5
469 468 -1.5846057E5
469 469 3.1542014E5
469 470 -1.5695957E5
470 469 -1.5846057E5
470 470 3.1542014E5
470 471 -1.5695957E5
471 470 -1.5846057E5
471 471 3.1542014E5
471 472 -1.5695957E5
472 471 -1.5846057E5
472 472 3.1542014E5
472 473 -1.5695957E5
473 472 -1.5846057E5
473 473 3.1542014E5
473 474 -1.5695957E5
474 473 -1.5846057E5
474 474 3.1542014E5
474 475 -1.5695957E5
475 474 -1.5846057E5
475 475 3.1542014E5
475 476 -1.5695957E5
476 475 -1.5846057E5
476 476 3.1542014E5
476 477 -1.5695957E5
477 476 -1.5846057E5
477 477 3.1542014E5
477 478 -1.5695957E5
478 477 -1.5846057E5
478 478 3.1542014E5
478 479 -1.5695957E5
479 478 -1.5846057E5
479 479 3.1542014E5
479 480 -1.5695957E5
480 479 -1.5846057E5
480 480 3.1542014E5
480 481 -1.5695957E5
481 480 -1.5846057E5
481 481 3.1542014E5
481 482 -1.5695957E5
482 481 -1.5846057E5
482 482 3.1542014E5
482 483 -1.5695957E5
483 482 -1.5846057E5
483 483 3.1542014E5
483 484 -1.5695957E5
484 483 -1.5846057E5
484 484 3.1542014E5
484 485 -1.5695957E5
485 484 -1.5846057E5
485 485 3.1542014E5
485 486 -1.5695957E5
486 485 -1.5846057E5
486 486 3.1542014E5
486 487 -1.5695957E5
487 486 -1.5846057E5
487 487 3.1542014E5
487 488 -1.5695957E5
488 487 -1.5846057E5
488 488 3.1542014E5
488 489 -1.5695957E5
489 488 -1.5846057E5
489 489 3.1542014E5
489 490 -1.5695957E5
490 489 -1.5846057E5
490 490 3.1542014E5
490 491 -1.5695957E5
491 490 -1.5846057E5
491 491 3.1542014E5
491 492 -1.5695957E5
492 491 -1.5846057E5
492 492 3.1542014E5
492 493 -1.5695957E5
493 492 -1.5846057E5
493 493 3.1542014E5
493 494 -1.5695957E5
494 493 -1.5846057E5
494 494 3.1542014E5
494 495 -1.5695957E5
495 494 -1.5846057E5
495 495 3.1542014E5
495 496 -1.5695957E5
496 495 -1.5846057E5
496 496 3.1542014E5
496 497 -1.5695957E5
497 496 -1.5846057E5
497 497 3.1542014E5
497 498 -1.5695957E5
498 497 -1.5846057E5
498 498 3.1542014E5
498 499 -1.5695957E5
499 498 -1.5846057E5
499 499 3.1542014E5
499 500 -1.5695957E5
500 499 -1.5846057E5
500 500 3.1542014E5
500 501 -1.5695957E5
501 500 -1.5846057E5
501 501 3.1542014E5
501 502 -1.5695957E5
502 501 -1.5846057E5
502 502 3.1542014E5
502 503 -1.5695957E5
503 502 -1.5846057E5
503 503 3.1542014E5
503 504 -1.5695957E5
504 503 -1.5846057E5
504 504 3.1542014E5
504 505 -1.5695957E5
505 504 -1.5846057E5
505 505 3.1542014E5
505 506 -1.5695957E5
506 505 -1.5846057E5
506 506 3.1542014E5
506 507 -1.5695957E5
507 506 -1.5846057E5
507 507 3.1542014E5
507 508 -1.5695957E5
508 507 -1.5846057E5
508 508 3.1542014E5
508 509 -1.5695957E5
509 508 -1.5846057E5
509 509 3.1542014E5
509 510 -1.5695957E5
510 509 -1.5846057E5
510 510 3.1542014E5
510 511 -1.5695957E5
511 510 -1.5846057E5
511 511 3.1542014E5
511 512 -1.5695957E5
512 511 -1.5846057E5
512 512 3.1542014E5
512 513 -1.5695957E5
513 512 -1.5846057E5
513 513 3.1542014E5
513 514 -1.5695957E5
514 513 -1.5846057E5
514 514 3.1542014E5
514 515 -1.5695957E5
515 514 -1.5846057E5
515 515 3.1542014E5
515 516 -1.5695957E5
516 515 -1.5846057E5
516 516 3.1542014E5
516 517 -1.5695957E5
517 516 -1.5846057E5
517 517 3.1542014E5
517 518 -1.5695957E5
518 517 -1.5846057E5
518 518 3.1542014E5
518 519 -1.5695957E5
519 518 -1.5846057E5
519 519 3.1542014E5
519 520 -1.5695957E5
520 519 -1.5846057E5
520 520 3.1542014E5
520 521 -1.5695957E5
521 520 -1.5846057E5
521 521 3.1542014E5
521 522 -1.5695957E5
522 521 -1.5846057E5
522 522 3.1542014E5
522 523 -1.5695957E5
523 522 -1.5846057E5
523 523 3.1542014E5
523 524 -1.5695957E5
524 523 -1.5846057E5
524 524 3.1542014E5
524 525 -1.5695957E5
525 524 -1.5846057E5
525 525 3.1542014E5
525 526 -1.5695957E5
526 525 -1.5846057E5
526 526 3.1542014E5
526 527 -1.5695957E5
527 526 -1.5846057E5
527 527 3.1542014E5
527 528 -1.5695957E5
528 527 -1.5846057E5
528 528 3.1542014E5
528 529 -1.5695957E5
529 528 -1.5846057E5
529 529 3.1542014E5
529 530 -1.5695957E5
530 529 -1.5846057E5
530 530 3.1542014E5
530 531 -1.5695957E5
531 530 -1.5846057E5
531 531 3.1542014E5
531 532 -1.5695957E5
532 531 -1.5846057E5
532 532 3.1542014E5
532 533 -1.5695957E5
533 532 -1.5846057E5
533 533 3.1542014E5
533 534 -1.5695957E5
534 533 -1.5846057E5
534 534 3.1542014E5
534 535 -1.5695957E5
535 534 -1.5846057E5
535 535 3.1542014E5
535 536 -1.5695957E5
536 535 -1.5846057E5
536 536 3.1542014E5
536 537 -1.5695957E5
537 536 -1.5846057E5
537 537 3.1542014E5
537 538 -1.5695957E5
538 537 -1.5846057E5
538 538 3.1542014E5
538 539 -1.5695957E5
539 538 -1.5846057E5
539 539 3.1542014E5
539 540 -1.5695957E5
540 539 -1.5846057E5
540 540 3.1542014E5
540 541 -1.5695957E5
541 540 -1.5846057E5
541 541 3.1542014E5
541 542 -1.5695957E5
542 541 -1.5846057E5
542 542 3.1542014E5
542 543 -1.5695957E5
543 542 -1.5846057E5
543 543 3.1542014E5
543 544 -1.5695957E5
544 543 -1.5846057E5
544 544 3.1542014E5
544 545 -1.5695957E5
545 544 -1.5846057E5
545 545 3.1542014E5
545 546 -1.5695957E5
546 545 -1.5846057E5
546 546 3.1542014E5
546 547 -1.5695957E5
547 546 -1.5846057E5
547 547 3.1542014E5
547 548 -1.5695957E5
548 547 -1.5846057E5
548 548 3.1542014E5
548 549 -1.5695957E5
549 548 -1.5846057E5
549 549 3.1542014E5
549 550 -1.5695957E5
550 549 -1.5846057E5
550 550 3.1542014E5
550 551 -1.5695957E5
551 550 -1.5846057E5
551 551 3.1542014E5
551 552 -1.5695957E5
552 551 -1.5846057E5
552 552 3.1542014E5
552 553 -1.5695957E5
553 552 -1.5846057E5
553 553 3.1542014E5
553 554 -1.5695957E5
554 553 -1.5846057E5
554 554 3.1542014E5
554 555 -1.5695957E5
555 554 -1.5846057E5
555 555 3.1542014E5
555 556 -1.5695957E5
556 555 -1.5846057E5
556 556 3.1542014E5
556 557 -1.5695957E5
557 556 -1.5846057E5
557 557 3.1542014E5
557 558 -1.5695957E5
558 557 -1.5846057E5
558 558 3.1542014E5
558 559 -1.5695957E5
559 558 -1.5846057E5
559 559 3.1542014E5
559 560 -1.5695957E5
560 559 -1.5846057E5
560 560 3.1542014E5
560 561 -1.5695957E5
561 560 -1.5846057E5
561 561 3.1542014E5
561 562 -1.5695957E5
562 561 -1.5846057E5
562 562 3.1542014E5
562 563 -1.5695957E5
563 562 -1.5846057E5
563 563 3.1542014E5
563 564 -1.5695957E5
564 563 -1.5846057E5
564 564 3.1542014E5
564 565 -1.5695957E5
565 564 -1.5846057E5
565 565 3.1542014E5
565 566 -1.5695957E5
566 565 -1.5846057E5
566 566 3.1542014E5
566 567 -1.5695957E5
567 566 -1.5846057E5
567 567 3.1542014E5
567 568 -1.5695957E5
568 567 -1.5846057E5
568 568 3.1542014E5
568 569 -1.5695957E5
569 568 -1.5846057E5
569 569 3.1542014E5
569 570 -1.5695957E5
570 569 -1.5846057E5
570 570 3.1542014E5
570 571 -1.5695957E5
571 570 -1.5846057E5
571 571 3.1542014E5
571 572 -1.5695957E5
572 571 -1.5846057E5
572 572 3.1542014E5
572 573 -1.5695957E5
573 572 -1.5846057E5
573 573 3.1542014E5
573 574 -1.5695957E5
574 573 -1.5846057E5
574 574 3.1542014E5
574 575 -1.5695957E5
575 574 -1.5846057E5
575 575 3.1542014E5
575 576 -1.5695957E5
576 575 -1.5846057E5
576 576 3.1542014E5
576 577 -1.5695957E5
577 576 -1.5846057E5
577 577 3.1542014E5
577 578 -1.5695957E5
578 577 -1.5846057E5
578 578 3.1542014E5
578 579 -1.5695957E5
579 578 -1.5846057E5
579 579 3.1542014E5
579 580 -1.5695957E5
580 579 -1.5846057E5
580 580 3.1542014E5
580 581 -1.5695957E5
581 580 -1.5846057E5
581 581 3.1542014E5
581 582 -1.5695957E5
582 581 -1.5846057E5
582 582 3.1542014E5
582 583 -1.5695957E5
583 582 -1.5846057E5
583 583 3.1542014E5
583 584 -1.5695957E5
584 583 -1.5846057E5
584 584 3.1542014E5
584 585 -1.5695957E5
585 584 -1.5846057E5
585 585 3.1542014E5
585 586 -1.5695957E5
586 585 -1.5846057E5
586 586 3.1542014E5
586 587 -1.5695957E5
587 586 -1.5846057E5
587 587 3.1542014E5
587 588 -1.5695957E5
588 587 -1.5846057E5
588 588 3.1542014E5
588 589 -1.5695957E5
589 588 -1.5846057E5
589 589 3.1542014E5
589 590 -1.5695957E5
590 589 -1.5846057E5
590 590 3.1542014E5
590 591 -1.5695957E5
591 590 -1.5846057E5
591 591 3.1542014E5
591 592 -1.5695957E5
592 591 -1.5846057E5
592 592 3.1542014E5
592 593 -1.5695957E5
593 592 -1.5846057E5
593 593 3.1542014E5
593 594 -1.5695957E5
594 593 -1.5846057E5
594 594 3.1542014E5
594 595 -1.5695957E5
595 594 -1.5846057E5
595 595 3.1542014E5
595 596 -1.5695957E5
596 595 -1.5846057E5
596 596 3.1542014E5
596 597 -1.5695957E5
597 596 -1.5846057E5
597 597 3.1542014E5
597 598 -1.5695957E5
598 597 -1.5846057E5
598 598 3.1542014E5
598 599 -1.5695957E5
599 598 -1.5846057E5
599 599 3.1542014E5
599 600 -1.5695957E5
600 599 -1.5846057E5
600 600 3.1542014E5
600 601 -1.5695957E5
601 600 -1.5846057E5
601 601 3.1542014E5
601 602 -1.5695957E5
602 601 -1.5846057E5
602 602 3.1542014E5
602 603 -1.5695957E5
603 602 -1.5846057E5
603 603 3.1542014E5
603 604 -1.5695957E5
604 603 -1.5846057E5
604 604 3.1542014E5
604 605 -1.5695957E5
605 604 -1.5846057E5
605 605 3.1542014E5
605 606 -1.5695957E5
606 605 -1.5846057E5
606 606 3.1542014E5
606 607 -1.5695957E5
607 606 -1.5846057E5
607 607 3.1542014E5
607 608 -1.5695957E5
608 607 -1.5846057E5
608 608 3.1542014E5
608 609 -1.5695957E5
609 608 -1.5846057E5
609 609 3.1542014E5
609 610 -1.5695957E5
610 609 -1.5846057E5
610 610 3.1542014E5
610 611 -1.5695957E5
611 610 -1.5846057E5
611 611 3.1542014E5
611 612 -1.5695957E5
612 611 -1.5846057E5
612 612 3.1542014E5
612 613 -1.5695957E5
613 612 -1.5846057E5
613 613 3.1542014E5
613 614 -1.5695957E5
614 613 -1.5846057E5
614 614 3.1542014E5
614 615 -1.5695957E5
615 614 -1.5846057E5
615 615 3.1542014E5
615 616 -1.5695957E5
616 615 -1.5846057E5
616 616 3.1542014E5
616 617 -1.5695957E5
617 616 -1.5846057E5
617 617 3.1542014E5
617 618 -1.5695957E5
618 617 -1.5846057E5
618 618 3.1542014E5
618 619 -1.5695957E5
619 618 -1.5846057E5
619 619 3.1542014E5
619 620 -1.5695957E5
620 619 -1.5846057E5
620 620 3.1542014E5
620 621 -1.5695957E5
621 620 -1.5846057E5
621 621 3.1542014E5
621 622 -1.5695957E5
622 621 -1.5846057E5
622 622 3.1542014E5
622 623 -1.5695957E5
623 622 -1.5846057E5
623 623 3.1542014E5
623 624 -1.5695957E5
624 623 -1.5846057E5
624 624 3.1542014E5
624 625 -1.5695957E5
625 624 -1.5846057E5
625 625 3.1542014E5
625 626 -1.5695957E5
626 625 -1.5846057E5
626 626 3.1542014E5
626 627 -1.5695957E5
627 626 -1.5846057E5
627 627 3.1542014E5
627 628 -1.5695957E5
628 627 -1.5846057E5
628 628 3.1542014E5
628 629 -1.5695957E5
629 628 -1.5846057E5
629 629 3.1542014E5
629 630 -1.5695957E5
630 629 -1.5846057E5
630 630 3.1542014E5
630 631 -1.5695957E5
631 630 -1.5846057E5
631 631 3.1542014E5
631 632 -1.5695957E5
632 631 -1.5846057E5
632 632 3.1542014E5
632 633 -1.5695957E5
633 632 -1.5846057E5
633 633 3.1542014E5
633 634 -1.5695957E5
634 633 -1.5846057E5
634 634 3.1542014E5
634 635 -1.5695957E5
635 634 -1.5846057E5
635 635 3.1542014E5
635 636 -1.5695957E5
636 635 -1.5846057E5
636 636 3.1542014E5
636 637 -1.5695957E5
637 636 -1.5846057E5
637 637 3.1542014E5
637 638 -1.5695957E5
638 637 -1.5846057E5
638 638 3.1542014E5
638 639 -1.5695957E5
639 638 -1.5846057E5
639 639 3.1542014E5
639 640 -1.5695957E5
640 639 -1.5846057E5
640 640 3.1542014E5
640 641 -1.5695957E5
641 640 -1.5846057E5
641 641 3.1542014E5
641 642 -1.5695957E5
642 641 -1.5846057E5
642 642 3.1542014E5
642 643 -1.5695957E5
643 642 -1.5846057E5
643 643 3.1542014E5
643 644 -1.5695957E5
644 643 -1.5846057E5
644 644 3.1542014E5
644 645 -1.5695957E5
645 644 -1.5846057E5
645 645 3.1542014E5
645 646 -1.5695957E5
646 645 -1.5846057E5
646 646 3.1542014E5
646 647 -1.5695957E5
647 646 -1.5846057E5
647 647 3.1542014E5
647 648 -1.5695957E5
648 647 -1.5846057E5
648 648 3.1542014E5
648 649 -1.5695957E5
649 648 -1.5846057E5
649 649 3.1542014E5
649 650 -1.5695957E5
650 649 -1.5846057E5
650 650 3.1542014E5
650 651 -1.5695957E5
651 650 -1.5846057E5
651 651 3.1542014E5
651 652 -1.5695957E5
652 651 -1.5846057E5
652 652 3.1542014E5
652 653 -1.5695957E5
653 652 -1.5846057E5
653 653 3.1542014E5
653 654 -1.5695957E5
654 653 -1.5846057E5
654 654 3.1542014E5
654 655 -1.5695957E5
655 654 -1.5846057E5
655 655 3.1542014E5
655 656 -1.5695957E5
656 655 -1.5846057E5
656 656 3.1542014E5
656 657 -1.5695957E5
657 656 -1.5846057E5
657 657 3.1542014E5
657 658 -1.5695957E5
658 657 -1.5846057E5
658 658 3.1542014E5
658 659 -1.5695957E5
659 658 -1.5846057E5
659 659 3.1542014E5
659 660 -1.5695957E5
660 659 -1.5846057E5
660 660 3.1542014E5
660 661 -1.5695957E5
661 660 -1.5846057E5
661 661 3.1542014E5
661 662 -1.5695957E5
662 661 -1.5846057E5
662 662 3.1542014E5
662 663 -1.5695957E5
663 662 -1.5846057E5
663 663 3.1542014E5
663 664 -1.5695957E5
664 663 -1.5846057E5
664 664 3.1542014E5
664 665 -1.5695957E5
665 664 -1.5846057E5
665 665 3.1542014E5
665 666 -1.5695957E5
666 665 -1.5846057E5
666 666 3.1542014E5
666 667 -1.5695957E5
667 666 -1.5846057E5
667 667 3.1542014E5
667 668 -1.5695957E5
668 667 -1.5846057E5
668 668 3.1542014E5
668 669 -1.5695957E5
669 668 -1.5846057E5
669 669 3.1542014E5
669 670 -1.5695957E5
670 669 -1.5846057E5
670 670 3.1542014E5
670 671 -1.5695957E5
671 670 -1.5846057E5
671 671 3.1542014E5
671 672 -1.5695957E5
672 671 -1.5846057E5
672 672 3.1542014E5
672 673 -1.5695957E5
673 672 -1.5846057E5
673 673 3.1542014E5
673 674 -1.5695957E5
674 673 -1.5846057E5
674 674 3.1542014E5
674 675 -1.5695957E5
675 674 -1.5846057E5
675 675 3.1542014E5
675 676 -1.5695957E5
676 675 -1.5846057E5
676 676 3.1542014E5
676 677 -1.5695957E5
677 676 -1.5846057E5
677 677 3.1542014E5
677 678 -1.5695957E5
678 677 -1.5846057E5
678 678 3.1542014E5
678 679 -1.5695957E5
679 678 -1.5846057E5
679 679 3.1542014E5
679 680 -1.5695957E5
680 679 -1.5846057E5
680 680 3.1542014E5
680 681 -1.5695957E5
681 680 -1.5846057E5
681 681 3.1542014E5
681 682 -1.5695957E5
682 681 -1.5846057E5
682 682 3.1542014E5
682 683 -1.5695957E5
683 682 -1.5846057E5
683 683 3.1542014E5
683 684 -1.5695957E5
684 683 -1.5846057E5
684 684 3.1542014E5
684 685 -1.5695957E5
685 684 -1.5846057E5
685 685 3.1542014E5
685 686 -1.5695957E5
686 685 -1.5846057E5
686 686 3.1542014E5
686 687 -1.5695957E5
687 686 -1.5846057E5
687 687 3.1542014E5
687 688 -1.5695957E5
688 687 -1.5846057E5
688 688 3.1542014E5
688 689 -1.5695957E5
689 688 -1.5846057E5
689 689 3.1542014E5
689 690 -1.5695957E5
690 689 -1.5846057E5
690 690 3.1542014E5
690 691 -1.5695957E5
691 690 -1.5846057E5
691 691 3.1542014E5
691 692 -1.5695957E5
692 691 -1.5846057E5
692 692 3.1542014E5
692 693 -1.5695957E5
693 692 -1.5846057E5
693 693 3.1542014E5
693 694 -1.5695957E5
694 693 -1.5846057E5
694 694 3.1542014E5
694 695 -1.5695957E5
695 694 -1.5846057E5
695 695 3.1542014E5
695 696 -1.5695957E5
696 695 -1.5846057E5
696 696 3.1542014E5
696 697 -1.5695957E5
697 696 -1.5846057E5
697 697 3.1542014E5
697 698 -1.5695957E5
698 697 -1.5846057E5
698 698 3.1542014E5
698 699 -1.5695957E5
699 698 -1.5846057E5
699 699 3.1542014E5
699 700 -1.5695957E5
700 699 -1.5846057E5
700 700 3.1542014E5
700 701 -1.5695957E5
701 700 -1.5846057E5
701 701 3.1542014E5
701 702 -1.5695957E5
702 701 -1.5846057E5
702 702 3.1542014E5
702 703 -1.5695957E5
703 702 -1.5846057E5
703 703 3.1542014E5
703 704 -1.5695957E5
704 703 -1.5846057E5
704 704 3.1542014E5
704 705 -1.5695957E5
705 704 -1.5846057E5
705 705 3.1542014E5
705 706 -1.5695957E5
706 705 -1.5846057E5
706 706 3.1542014E5
706 707 -1.5695957E5
707 706 -1.5846057E5
707 707 3.1542014E5
707 708 -1.5695957E5
708 707 -1.5846057E5
708 708 3.1542014E5
708 709 -1.5695957E5
709 708 -1.5846057E5
709 709 3.1542014E5
709 710 -1.5695957E5
710 709 -1.5846057E5
710 710 3.1542014E5
710 711 -1.5695957E5
711 710 -1.5846057E5
711 711 3.1542014E5
711 712 -1.5695957E5
712 711 -1.5846057E5
712 712 3.1542014E5
712 713 -1.5695957E5
713 712 -1.5846057E5
713 713 3.1542014E5
713 714 -1.5695957E5
714 713 -1.5846057E5
714 714 3.1542014E5
714 715 -1.5695957E5
715 714 -1.5846057E5
715 715 3.1542014E5
715 716 -1.5695957E5
716 715 -1.5846057E5
716 716 3.1542014E5
716 717 -1.5695957E5
717 716 -1.5846057E5
717 717 3.1542014E5
717 718 -1.5695957E5
718 717 -1.5846057E5
718 718 3.1542014E5
718 719 -1.5695957E5
719 718 -1.5846057E5
719 719 3.1542014E5
719 720 -1.5695957E5
720 719 -1.5846057E5
720 720 3.1542014E5
720 721 -1.5695957E5
721 720 -1.5846057E5
721 721 3.1542014E5
721 722 -1.5695957E5
722 721 -1.5846057E5
722 722 3.1542014E5
722 723 -1.5695957E5
723 722 -1.5846057E5
723 723 3.1542014E5
723 724 -1.5695957E5
724 723 -1.5846057E5
724 724 3.1542014E5
724 725 -1.5695957E5
725 724 -1.5846057E5
725 725 3.1542014E5
725 726 -1.5695957E5
726 725 -1.5846057E5
726 726 3.1542014E5
726 727 -1.5695957E5
727 726 -1.5846057E5
727 727 3.1542014E5
727 728 -1.5695957E5
728 727 -1.5846057E5
728 728 3.1542014E5
728 729 -1.5695957E5
729 728 -1.5846057E5
729 729 3.1542014E5
729 730 -1.5695957E5
730 729 -1.5846057E5
730 730 3.1542014E5
730 731 -1.5695957E5
731 730 -1.5846057E5
731 731 3.1542014E5
731 732 -1.5695957E5
732 731 -1.5846057E5
732 732 3.1542014E5
732 733 -1.5695957E5
733 732 -1.5846057E5
733 733 3.1542014E5
733 734 -1.5695957E5
734 733 -1.5846057E5
734 734 3.1542014E5
734 735 -1.5695957E5
735 734 -1.5846057E5
735 735 3.1542014E5
735 736 -1.5695957E5
736 735 -1.5846057E5
736 736 3.1542014E5
736 737 -1.5695957E5
737 736 -1.5846057E5
737 737 3.1542014E5
737 738 -1.5695957E5
738 737 -1.5846057E5
738 738 3.1542014E5
738 739 -1.5695957E5
739 738 -1.5846057E5
739 739 3.1542014E5
739 740 -1.5695957E5
740 739 -1.5846057E5
740 740 3.1542014E5
740 741 -1.5695957E5
741 740 -1.5846057E5
741 741 3.1542014E5
741 742 -1.5695957E5
742 741 -1.5846057E5
742 742 3.1542014E5
742 743 -1.5695957E5
743 742 -1.5846057E5
743 743 3.1542014E5
743 744 -1.5695957E5
744 743 -1.5846057E5
744 744 3.1542014E5
744 745 -1.5695957E5
745 744 -1.5846057E5
745 745 3.1542014E5
745 746 -1.5695957E5
746 745 -1.5846057E5
746 746 3.1542014E5
746 747 -1.5695957E5
747 746 -1.5846057E5
747 747 3.1542014E5
747 748 -1.5695957E5
748 747 -1.5846057E5
748 748 3.1542014E5
748 749 -1.5695957E5
749 748 -1.5846057E5
749 749 3.1542014E5
749 750 -1.5695957E5
750 749 -1.5846057E5
750 750 3.1542014E5
750 751 -1.5695957E5
751 750 -1.5846057E5
751 751 3.1542014E5
751 752 -1.5695957E5
752 751 -1.5846057E5
752 752 3.1542014E5
752 753 -1.5695957E5
753 752 -1.5846057E5
753 753 3.1542014E5
753 754 -1.5695957E5
754 753 -1.5846057E5
754 754 3.1542014E5
754 755 -1.5695957E5
755 754 -1.5846057E5
755 755 3.1542014E5
755 756 -1.5695957E5
756 755 -1.5846057E5
756 756 3.1542014E5
756 757 -1.5695957E5
757 756 -1.5846057E5
757 757 3.1542014E5
757 758 -1.5695957E5
758 757 -1.5846057E5
758 758 3.1542014E5
758 759 -1.5695957E5
759 758 -1.5846057E5
759 759 3.1542014E5
759 760 -1.5695957E5
760 759 -1.5846057E5
760 760 3.1542014E5
760 761 -1.5695957E5
761 760 -1.5846057E5
761 761 3.1542014E5
761 762 -1.5695957E5
762 761 -1.5846057E5
762 762 3.1542014E5
762 763 -1.5695957E5
763 762 -1.5846057E5
763 763 3.1542014E5
763 764 -1.5695957E5
764 763 -1.5846057E5
764 764 3.1542014E5
764 765 -1.5695957E5
765 764 -1.5846057E5
765 765 3.1542014E5
765 766 -1.5695957E5
766 765 -1.5846057E5
766 766 3.1542014E5
766 767 -1.5695957E5
767 766 -1.5846057E5
767 767 3.1542014E5
767 768 -1.5695957E5
768 767 -1.5846057E5
768 768 3.1542014E5
768 769 -1.5695957E5
769 768 -1.5846057E5
769 769 3.1542014E5
769 770 -1.5695957E5
770 769 -1.5846057E5
770 770 3.1542014E5
770 771 -1.5695957E5
771 770 -1.5846057E5
771 771 3.1542014E5
771 772 -1.5695957E5
772 771 -1.5846057E5
772 772 3.1542014E5
772 773 -1.5695957E5
773 772 -1.5846057E5
773 773 3.1542014E5
773 774 -1.5695957E5
774 773 -1.5846057E5
774 774 3.1542014E5
774 775 -1.5695957E5
775 774 -1.5846057E5
775 775 3.1542014E5
775 776 -1.5695957E5
776 775 -1.5846057E5
776 776 3.1542014E5
776 777 -1.5695957E5
777 776 -1.5846057E5
777 777 3.1542014E5
777 778 -1.5695957E5
778 777 -1.5846057E5
778 778 3.1542014E5
778 779 -1.5695957E5
779 778 -1.5846057E5
779 779 3.1542014E5
779 780 -1.5695957E5
780 779 -1.5846057E5
780 780 3.1542014E5
780 781 -1.5695957E5
781 780 -1.5846057E5
781 781 3.1542014E5
781 782 -1.5695957E5
782 781 -1.5846057E5
782 782 3.1542014E5
782 783 -1.5695957E5
783 782 -1.5846057E5
783 783 3.1542014E5
783 784 -1.5695957E5
784 783 -1.5846057E5
784 784 3.1542014E5
784 785 -1.5695957E5
785 784 -1.5846057E5
785 785 3.1542014E5
785 786 -1.5695957E5
786 785 -1.5846057E5
786 786 3.1542014E5
786 787 -1.5695957E5
787 786 -1.5846057E5
787 787 3.1542014E5
787 788 -1.5695957E5
788 787 -1.5846057E5
788 788 3.1542014E5
788 789 -1.5695957E5
789 788 -1.5846057E5
789 789 3.1542014E5
789 790 -1.5695957E5
790 789 -1.5846057E5
790 790 3.1542014E5
790 791 -1.5695957E5
791 790 -1.5846057E5
791 791 3.1542014E5
791 792 -1.5695957E5
792 791 -1.5846057E5
792 792 3.1542014E5
792 793 -1.5695957E5
793 792 -1.5846057E5
793 793 3.1542014E5
793 794 -1.5695957E5
794 793 -1.5846057E5
794 794 3.1542014E5
794 795 -1.5695957E5
795 794 -1.5846057E5
795 795 3.1542014E5
795 796 -1.5695957E5
796 795 -1.5846057E5
796 796 3.1542014E5
796 797 -1.5695957E5
797 796 -1.5846057E5
797 797 3.1542014E5
797 798 -1.5695957E5
798 797 -1.5846057E5
798 798 3.1542014E5
798 799 -1.5695957E5
799 798 -1.5846057E5
799 799 3.1542014E5
799 800 -1.5695957E5
800 799 -1.5846057E5
800 800 3.1542014E5
800 801 -1.5695957E5
801 800 -1.5846057E5
801 801 3.1542014E5
801 802 -1.5695957E5
802 801 -1.5846057E5
802 802 3.1542014E5
802 803 -1.5695957E5
803 802 -1.5846057E5
803 803 3.1542014E5
803 804 -1.5695957E5
804 803 -1.5846057E5
804 804 3.1542014E5
804 805 -1.5695957E5
805 804 -1.5846057E5
805 805 3.1542014E5
805 806 -1.5695957E5
806 805 -1.5846057E5
806 806 3.1542014E5
806 807 -1.5695957E5
807 806 -1.5846057E5
807 807 3.1542014E5
807 808 -1.5695957E5
808 807 -1.5846057E5
808 808 3.1542014E5
808 809 -1.5695957E5
809 808 -1.5846057E5
809 809 3.1542014E5
809 810 -1.5695957E5
810 809 -1.5846057E5
810 810 3.1542014E5
810 811 -1.5695957E5
811 810 -1.5846057E5
811 811 3.1542014E5
811 812 -1.5695957E5
812 811 -1.5846057E5
812 812 3.1542014E5
812 813 -1.5695957E5
813 812 -1.5846057E5
813 813 3.1542014E5
813 814 -1.5695957E5
814 813 -1.5846057E5
814 814 3.1542014E5
814 815 -1.5695957E5
815 814 -1.5846057E5
815 815 3.1542014E5
815 816 -1.5695957E5
816 815 -1.5846057E5
816 816 3.1542014E5
816 817 -1.5695957E5
817 816 -1.5846057E5
817 817 3.1542014E5
817 818 -1.5695957E5
818 817 -1.5846057E5
818 818 3.1542014E5
818 819 -1.5695957E5
819 818 -1.5846057E5
819 819 3.1542014E5
819 820 -1.5695957E5
820 819 -1.5846057E5
820 820 3.1542014E5
820 821 -1.5695957E5
821 820 -1.5846057E5
821 821 3.1542014E5
821 822 -1.5695957E5
822 821 -1.5846057E5
822 822 3.1542014E5
822 823 -1.5695957E5
823 822 -1.5846057E5
823 823 3.1542014E5
823 824 -1.5695957E5
824 823 -1.5846057E5
824 824 3.1542014E5
824 825 -1.5695957E5
825 824 -1.5846057E5
825 825 3.1542014E5
825 826 -1.5695957E5
826 825 -1.5846057E5
826 826 3.1542014E5
826 827 -1.5695957E5
827 826 -1.5846057E5
827 827 3.1542014E5
827 828 -1.5695957E5
828 827 -1.5846057E5
828 828 3.1542014E5
828 829 -1.5695957E5
829 828 -1.5846057E5
829 829 3.1542014E5
829 830 -1.5695957E5
830 829 -1.5846057E5
830 830 3.1542014E5
830 831 -1.5695957E5
831 830 -1.5846057E5
831 831 3.1542014E5
831 832 -1.5695957E5
832 831 -1.5846057E5
832 832 3.1542014E5
832 833 -1.5695957E5
833 832 -1.5846057E5
833 833 3.1542014E5
833 834 -1.5695957E5
834 833 -1.5846057E5
834 834 3.1542014E5
834 835 -1.5695957E5
835 834 -1.5846057E5
835 835 3.1542014E5
835 836 -1.5695957E5
836 835 -1.5846057E5
836 836 3.1542014E5
836 837 -1.5695957E5
837 836 -1.5846057E5
837 837 3.1542014E5
837 838 -1.5695957E5
838 837 -1.5846057E5
838 838 3.1542014E5
838 839 -1.5695957E5
839 838 -1.5846057E5
839 839 3.1542014E5
839 840 -1.5695957E5
840 839 -1.5846057E5
840 840 3.1542014E5
840 841 -1.5695957E5
841 840 -1.5846057E5
841 841 3.1542014E5
841 842 -1.5695957E5
842 841 -1.5846057E5
842 842 3.1542014E5
842 843 -1.5695957E5
843 842 -1.5846057E5
843 843 3.1542014E5
843 844 -1.5695957E5
844 843 -1.5846057E5
844 844 3.1542014E5
844 845 -1.5695957E5
845 844 -1.5846057E5
845 845 3.1542014E5
845 846 -1.5695957E5
846 845 -1.5846057E5
846 846 3.1542014E5
846 847 -1.5695957E5
847 846 -1.5846057E5
847 847 3.1542014E5
847 848 -1.5695957E5
848 847 -1.5846057E5
848 848 3.1542014E5
848 849 -1.5695957E5
849 848 -1.5846057E5
849 849 3.1542014E5
849 850 -1.5695957E5
850 849 -1.5846057E5
850 850 3.1542014E5
850 851 -1.5695957E5
851 850 -1.5846057E5
851 851 3.1542014E5
851 852 -1.5695957E5
852 851 -1.5846057E5
852 852 3.1542014E5
852 853 -1.5695957E5
853 852 -1.5846057E5
853 853 3.1542014E5
853 854 -1.5695957E5
854 853 -1.5846057E5
854 854 3.1542014E5
854 855 -1.5695957E5
855 854 -1.5846057E5
855 855 3.1542014E5
855 856 -1.5695957E5
856 855 -1.5846057E5
856 856 3.1542014E5
856 857 -1.5695957E5
857 856 -1.5846057E5
857 857 3.1542014E5
857 858 -1.5695957E5
858 857 -1.5846057E5
858 858 3.1542014E5
858 859 -1.5695957E5
859 858 -1.5846057E5
859 859 3.1542014E5
859 860 -1.5695957E5
860 859 -1.5846057E5
860 860 3.1542014E5
860 861 -1.5695957E5
861 860 -1.5846057E5
861 861 3.1542014E5
861 862 -1.5695957E5
862 861 -1.5846057E5
862 862 3.1542014E5
862 863 -1.5695957E5
863 862 -1.5846057E5
863 863 3.1542014E5
863 864 -1.5695957E5
864 863 -1.5846057E5
864 864 3.1542014E5
864 865 -1.5695957E5
865 864 -1.5846057E5
865 865 3.1542014E5
865 866 -1.5695957E5
866 865 -1.5846057E5
866 866 3.1542014E5
866 867 -1.5695957E5
867 866 -1.5846057E5
867 867 3.1542014E5
867 868 -1.5695957E5
868 867 -1.5846057E5
868 868 3.1542014E5
868 869 -1.5695957E5
869 868 -1.5846057E5
869 869 3.1542014E5
869 870 -1.5695957E5
870 869 -1.5846057E5
870 870 3.1542014E5
870 871 -1.5695957E5
871 870 -1.5846057E5
871 871 3.1542014E5
871 872 -1.5695957E5
872 871 -1.5846057E5
872 872 3.1542014E5
872 873 -1.5695957E5
873 872 -1.5846057E5
873 873 3.1542014E5
873 874 -1.5695957E5
874 873 -1.5846057E5
874 874 3.1542014E5
874 875 -1.5695957E5
875 874 -1.5846057E5
875 875 3.1542014E5
875 876 -1.5695957E5
876 875 -1.5846057E5
876 876 3.1542014E5
876 877 -1.5695957E5
877 876 -1.5846057E5
877 877 3.1542014E5
877 878 -1.5695957E5
878 877 -1.5846057E5
878 878 3.1542014E5
878 879 -1.5695957E5
879 878 -1.5846057E5
879 879 3.1542014E5
879 880 -1.5695957E5
880 879 -1.5846057E5
880 880 3.1542014E5
880 881 -1.5695957E5
881 880 -1.5846057E5
881 881 3.1542014E5
881 882 -1.5695957E5
882 881 -1.5846057E5
882 882 3.1542014E5
882 883 -1.5695957E5
883 882 -1.5846057E5
883 883 3.1542014E5
883 884 -1.5695957E5
884 883 -1.5846057E5
884 884 3.1542014E5
884 885 -1.5695957E5
885 884 -1.5846057E5
885 885 3.1542014E5
885 886 -1.5695957E5
886 885 -1.5846057E5
886 886 3.1542014E5
886 887 -1.5695957E5
887 886 -1.5846057E5
887 887 3.1542014E5
887 888 -1.5695957E5
888 887 -1.5846057E5
888 888 3.1542014E5
888 889 -1.5695957E5
889 888 -1.5846057E5
889 889 3.1542014E5
889 890 -1.5695957E5
890 889 -1.5846057E5
890 890 3.1542014E5
890 891 -1.5695957E5
891 890 -1.5846057E5
891 891 3.1542014E5
891 892 -1.5695957E5
892 891 -1.5846057E5
892 892 3.1542014E5
892 893 -1.5695957E5
893 892 -1.5846057E5
893 893 3.1542014E5
893 894 -1.5695957E5
894 893 -1.5846057E5
894 894 3.1542014E5
894 895 -1.5695957E5
895 894 -1.5846057E5
895 895 3.1542014E5
895 896 -1.5695957E5
896 895 -1.5846057E5
896 896 3.1542014E5
896 897 -1.5695957E5
897 896 -1.5846057E5
897 897 3.1542014E5
897 898 -1.5695957E5
898 897 -1.5846057E5
898 898 3.1542014E5
898 899 -1.5695957E5
899 898 -1.5846057E5
899 899 3.1542014E5
899 900 -1.5695957E5
900 899 -1.5846057E5
900 900 3.1542014E5
900 901 -1.5695957E5
901 900 -1.5846057E5
901 901 3.1542014E5
901 902 -1.5695957E5
902 901 -1.5846057E5
902 902 3.1542014E5
902 903 -1.5695957E5
903 902 -1.5846057E5
903 903 3.1542014E5
903 904 -1.5695957E5
904 903 -1.5846057E5
904 904 3.1542014E5
904 905 -1.5695957E5
905 904 -1.5846057E5
905 905 3.1542014E5
905 906 -1.5695957E5
906 905 -1.5846057E5
906 906 3.1542014E5
906 907 -1.5695957E5
907 906 -1.5846057E5
907 907 3.1542014E5
907 908 -1.5695957E5
908 907 -1.5846057E5
908 908 3.1542014E5
908 909 -1.5695957E5
909 908 -1.5846057E5
909 909 3.1542014E5
909 910 -1.5695957E5
910 909 -1.5846057E5
910 910 3.1542014E5
910 911 -1.5695957E5
911 910 -1.5846057E5
911 911 3.1542014E5
911 912 -1.5695957E5
912 911 -1.5846057E5
912 912 3.1542014E5
912 913 -1.5695957E5
913 912 -1.5846057E5
913 913 3.1542014E5
913 914 -1.5695957E5
914 913 -1.5846057E5
914 914 3.1542014E5
914 915 -1.5695957E5
915 914 -1.5846057E5
915 915 3.1542014E5
915 916 -1.5695957E5
916 915 -1.5846057E5
916 916 3.1542014E5
916 917 -1.5695957E5
917 916 -1.5846057E5
917 917 3.1542014E5
917 918 -1.5695957E5
918 917 -1.5846057E5
918 918 3.1542014E5
918 919 -1.5695957E5
919 918 -1.5846057E5
919 919 3.1542014E5
919 920 -1.5695957E5
920 919 -1.5846057E5
920 920 3.1542014E5
920 921 -1.5695957E5
921 920 -1.5846057E5
921 921 3.1542014E5
921 922 -1.5695957E5
922 921 -1.5846057E5
922 922 3.1542014E5
922 923 -1.5695957E5
923 922 -1.5846057E5
923 923 3.1542014E5
923 924 -1.5695957E5
924 923 -1.5846057E5
924 924 3.1542014E5
924 925 -1.5695957E5
925 924 -1.5846057E5
925 925 3.1542014E5
925 926 -1.5695957E5
926 925 -1.5846057E5
926 926 3.1542014E5
926 927 -1.5695957E5
927 926 -1.5846057E5
927 927 3.1542014E5
927 928 -1.5695957E5
928 927 -1.5846057E5
928 928 3.1542014E5
928 929 -1.5695957E5
929 928 -1.5846057E5
929 929 3.1542014E5
929 930 -1.5695957E5
930 929 -1.5846057E5
930 930 3.1542014E5
930 931 -1.5695957E5
931 930 -1.5846057E5
931 931 3.1542014E5
931 932 -1.5695957E5
932 931 -1.5846057E5
932 932 3.1542014E5
932 933 -1.5695957E5
933 932 -1.5846057E5
933 933 3.1542014E5
933 934 -1.5695957E5
934 933 -1.5846057E5
934 934 3.1542014E5
934 935 -1.5695957E5
935 934 -1.5846057E5
935 935 3.1542014E5
935 936 -1.5695957E5
936 935 -1.5846057E5
936 936 3.1542014E5
936 937 -1.5695957E5
937 936 -1.5846057E5
937 937 3.1542014E5
937 938 -1.5695957E5
938 937 -1.5846057E5
938 938 3.1542014E5
938 939 -1.5695957E5
939 938 -1.5846057E5
939 939 3.1542014E5
939 940 -1.5695957E5
940 939 -1.5846057E5
940 940 3.1542014E5
940 941 -1.5695957E5
941 940 -1.5846057E5
941 941 3.1542014E5
941 942 -1.5695957E5
942 941 -1.5846057E5
942 942 3.1542014E5
942 943 -1.5695957E5
943 942 -1.5846057E5
943 943 3.1542014E5
943 944 -1.5695957E5
944 943 -1.5846057E5
944 944 3.1542014E5
944 945 -1.5695957E5
945 944 -1.5846057E5
945 945 3.1542014E5
945 946 -1.5695957E5
946 945 -1.5846057E5
946 946 3.1542014E5
946 947 -1.5695957E5
947 946 -1.5846057E5
947 947 3.1542014E5
947 948 -1.5695957E5
948 947 -1.5846057E5
948 948 3.1542014E5
948 949 -1.5695957E5
949 948 -1.5846057E5
949 949 3.1542014E5
949 950 -1.5695957E5
950 949 -1.5846057E5
950 950 3.1542014E5
950 951 -1.5695957E5
951 950 -1.5846057E5
951 951 3.1542014E5
951 952 -1.5695957E5
952 951 -1.5846057E5
952 952 3.1542014E5
952 953 -1.5695957E5
953 952 -1.5846057E5
953 953 3.1542014E5
953 954 -1.5695957E5
954 953 -1.5846057E5
954 954 3.1542014E5
954 955 -1.5695957E5
955 954 -1.5846057E5
955 955 3.1542014E5
955 956 -1.5695957E5
956 955 -1.5846057E5
956 956 3.1542014E5
956 957 -1.5695957E5
957 956 -1.5846057E5
957 957 3.1542014E5
957 958 -1.5695957E5
958 957 -1.5846057E5
958 958 3.1542014E5
958 959 -1.5695957E5
959 958 -1.5846057E5
959 959 3.1542014E5
959 960 -1.5695957E5
960 959 -1.5846057E5
960 960 3.1542014E5
960 961 -1.5695957E5
961 960 -1.5846057E5
961 961 3.1542014E5
961 962 -1.5695957E5
962 961 -1.5846057E5
962 962 3.1542014E5
962 963 -1.5695957E5
963 962 -1.5846057E5
963 963 3.1542014E5
963 964 -1.5695957E5
964 963 -1.5846057E5
964 964 3.1542014E5
964 965 -1.5695957E5
965 964 -1.5846057E5
965 965 3.1542014E5
965 966 -1.5695957E5
966 965 -1.5846057E5
966 966 3.1542014E5
966 967 -1.5695957E5
967 966 -1.5846057E5
967 967 3.1542014E5
967 968 -1.5695957E5
968 967 -1.5846057E5
968 968 3.1542014E5
968 969 -1.5695957E5
969 968 -1.5846057E5
969 969 3.1542014E5
969 970 -1.5695957E5
970 969 -1.5846057E5
970 970 3.1542014E5
970 971 -1.5695957E5
971 970 -1.5846057E5
971 971 3.1542014E5
971 972 -1.5695957E5
972 971 -1.5846057E5
972 972 3.1542014E5
972 973 -1.5695957E5
973 972 -1.5846057E5
973 973 3.1542014E5
973 974 -1.5695957E5
974 973 -1.5846057E5
974 974 3.1542014E5
974 975 -1.5695957E5
975 974 -1.5846057E5
975 975 3.1542014E5
975 976 -1.5695957E5
976 975 -1.5846057E5
976 976 3.1542014E5
976 977 -1.5695957E5
977 976 -1.5846057E5
977 977 3.1542014E5
977 978 -1.5695957E5
978 977 -1.5846057E5
978 978 3.1542014E5
978 979 -1.5695957E5
979 978 -1.5846057E5
979 979 3.1542014E5
979 980 -1.5695957E5
980 979 -1.5846057E5
980 980 3.1542014E5
980 981 -1.5695957E5
981 980 -1.5846057E5
981 981 3.1542014E5
981 982 -1.5695957E5
982 981 -1.5846057E5
982 982 3.1542014E5
982 983 -1.5695957E5
983 982 -1.5846057E5
983 983 3.1542014E5
983 984 -1.5695957E5
984 983 -1.5846057E5
984 984 3.1542014E5
984 985 -1.5695957E5
985 984 -1.5846057E5
985 985 3.1542014E5
985 986 -1.5695957E5
986 985 -1.5846057E5
986 986 3.1542014E5
986 987 -1.5695957E5
987 986 -1.5846057E5
987 987 3.1542014E5
987 988 -1.5695957E5
988 987 -1.5846057E5
988 988 3.1542014E5
988 989 -1.5695957E5
989 988 -1.5846057E5
989 989 3.1542014E5
989 990 -1.5695957E5
990 989 -1.5846057E5
990 990 3.1542014E5
990 991 -1.5695957E5
991 990 -1.5846057E5
991 991 3.1542014E5
991 992 -1.5695957E5
992 991 -1.5846057E5
992 992 3.1542014E5
992 993 -1.5695957E5
993 992 -1.5846057E5
993 993 3.1542014E5
993 994 -1.5695957E5
994 993 -1.5846057E5
994 994 3.1542014E5
994 995 -1.5695957E5
995 994 -1.5846057E5
995 995 3.1542014E5
995 996 -1.5695957E5
996 995 -1.5846057E5
996 996 3.1542014E5
996 997 -1.5695957E5
997 996 -1.5846057E5
997 997 3.1542014E5
997 998 -1.5695957E5
998 997 -1.5846057E5
998 998 3.1542014E5
998 999 -1.5695957E5
999 998 -1.5846057E5
999 999 3.1542014E5
999 1000 -1.5695957E5
1000 999 -1.5846057E5
1000 1000 3.1542014E5
1000 1001 -1.5695957E5
1001 1000 -1.5846057E5
1001 1001 3.1542014E5
1001 1002 -1.5695957E5
1002 1001 -1.5846057E5
1002 1002 3.1542014E5
1002 1003 -1.5695957E5
1003 1002 -1.5846057E5
1003 1003 3.1542014E5
1003 1004 -1.5695957E5
1004 1003 -1.5846057E5
1004 1004 3.1542014E5
1004 1005 -1.5695957E5
1005 1004 -1.5846057E5
1005 1005 3.1542014E5
1005 1006 -1.5695957E5
1006 1005 -1.5846057E5
1006 1006 3.1542014E5
1006 1007 -1.5695957E5
1007 1006 -1.5846057E5
1007 1007 3.1542014E5
1007 1008 -1.5695957E5
1008 1007 -1.5846057E5
1008 1008 3.1542014E5
1008 1009 -1.5695957E5
1009 1008 -1.5846057E5
1009 1009 3.1542014E5
1009 1010 -1.5695957E5
1010 1009 -1.5846057E5
1010 1010 3.1542014E5
1010 1011 -1.5695957E5
1011 1010 -1.5846057E5
1011 1011 3.1542014E5
1011 1012 -1.5695957E5
1012 1011 -1.5846057E5
1012 1012 3.1542014E5
1012 1013 -1.5695957E5
1013 1012 -1.5846057E5
1013 1013 3.1542014E5
1013 1014 -1.5695957E5
1014 1013 -1.5846057E5
1014 1014 3.1542014E5
1014 1015 -1.5695957E5
1015 1014 -1.5846057E5
1015 1015 3.1542014E5
1015 1016 -1.5695957E5
1016 1015 -1.5846057E5
1016 1016 3.1542014E5
1016 1017 -1.5695957E5
1017 1016 -1.5846057E5
1017 1017 3.1542014E5
1017 1018 -1.5695957E5
1018 1017 -1.5846057E5
1018 1018 3.1542014E5
1018 1019 -1.5695957E5
1019 1018 -1.5846057E5
1019 1019 3.1542014E5
1019 1020 -1.5695957E5
1020 1019 -1.5846057E5
1020 1020 3.1542014E5
1020 1021 -1.5695957E5
1021 1020 -1.5846057E5
1021 1021 3.1542014E5
1021 1022 -1.5695957E5
1022 1021 -1.5846057E5
1022 1022 3.1542014E5
1022 1023 -1.5695957E5
1023 1022 -1.5846057E5
1023 1023 3.1542014E5
1023 1024 -1.5695957E5
1024 1023 -1.5846057E5
1024 1024 3.1542014E5
1024 1025 -1.5695957E5
1025 1024 -1.5846057E5
1025 1025 3.1542014E5
1025 1026 -1.5695957E5
1026 1025 -1.5846057E5
1026 1026 3.1542014E5
1026 1027 -1.5695957E5
1027 1026 -1.5846057E5
1027 1027 3.1542014E5
1027 1028 -1.5695957E5
1028 1027 -1.5846057E5
1028 1028 3.1542014E5
1028 1029 -1.5695957E5
1029 1028 -1.5846057E5
1029 1029 3.1542014E5
1029 1030 -1.5695957E5
1030 1029 -1.5846057E5
1030 1030 3.1542014E5
1030 1031 -1.5695957E5
1031 1030 -1.5846057E5
1031 1031 3.1542014E5
1031 1032 -1.5695957E5
1032 1031 -1.5846057E5
1032 1032 3.1542014E5
1032 1033 -1.5695957E5
1033 1032 -1.5846057E5
1033 1033 3.1542014E5
1033 1034 -1.5695957E5
1034 1033 -1.5846057E5
1034 1034 3.1542014E5
1034 1035 -1.5695957E5
1035 1034 -1.5846057E5
1035 1035 3.1542014E5
1035 1036 -1.5695957E5
1036 1035 -1.5846057E5
1036 1036 3.1542014E5
1036 1037 -1.5695957E5
1037 1036 -1.5846057E5
1037 1037 3.1542014E5
1037 1038 -1.5695957E5
1038 1037 -1.5846057E5
1038 1038 3.1542014E5
1038 1039 -1.5695957E5
1039 1038 -1.5846057E5
1039 1039 3.1542014E5
1039 1040 -1.5695957E5
1040 1039 -1.5846057E5
1040 1040 3.1542014E5
1040 1041 -1.5695957E5
1041 1040 -1.5846057E5
1041 1041 3.1542014E5
1041 1042 -1.5695957E5
1042 1041 -1.5846057E5
1042 1042 3.1542014E5
1042 1043 -1.5695957E5
1043 1042 -1.5846057E5
1043 1043 3.1542014E5
1043 1044 -1.5695957E5
1044 1043 -1.5846057E5
1044 1044 3.1542014E5
1044 1045 -1.5695957E5
1045 1044 -1.5846057E5
1045 1045 3.1542014E5
1045 1046 -1.5695957E5
1046 1045 -1.5846057E5
1046 1046 3.1542014E5
1046 1047 -1.5695957E5
1047 1046 -1.5846057E5
1047 1047 3.1542014E5
1047 1048 -1.5695957E5
1048 1047 -1.5846057E5
1048 1048 3.1542014E5
1048 1049 -1.5695957E5
1049 1048 -1.5846057E5
1049 1049 3.1542014E5
1049 1050 -1.5695957E5
1050 1049 -1.5846057E5
1050 1050 3.1542014E5
1050 1051 -1.5695957E5
1051 1050 -1.5846057E5
1051 1051 3.1542014E5
1051 1052 -1.5695957E5
1052 1051 -1.5846057E5
1052 1052 3.1542014E5
1052 1053 -1.5695957E5
1053 1052 -1.5846057E5
1053 1053 3.1542014E5
1053 1054 -1.5695957E5
1054 1053 -1.5846057E5
1054 1054 3.1542014E5
1054 1055 -1.5695957E5
1055 1054 -1.5846057E5
1055 1055 3.1542014E5
1055 1056 -1.5695957E5
1056 1055 -1.5846057E5
1056 1056 3.1542014E5
1056 1057 -1.5695957E5
1057 1056 -1.5846057E5
1057 1057 3.1542014E5
1057 1058 -1.5695957E5
1058 1057 -1.5846057E5
1058 1058 3.1542014E5
1058 1059 -1.5695957E5
1059 1058 -1.5846057E5
1059 1059 3.1542014E5
1059 1060 -1.5695957E5
1060 1059 -1.5846057E5
1060 1060 3.1542014E5
1060 1061 -1.5695957E5
1061 1060 -1.5846057E5
1061 1061 3.1542014E5
1061 1062 -1.5695957E5
1062 1061 -1.5846057E5
1062 1062 3.1542014E5
1062 1063 -1.5695957E5
1063 1062 -1.5846057E5
1063 1063 3.1542014E5
1063 1064 -1.5695957E5
1064 1063 -1.5846057E5
1064 1064 3.1542014E5
1064 1065 -1.5695957E5
1065 1064 -1.5846057E5
1065 1065 3.1542014E5
1065 1066 -1.5695957E5
1066 1065 -1.5846057E5
1066 1066 3.1542014E5
1066 1067 -1.5695957E5
1067 1066 -1.5846057E5
1067 1067 3.1542014E5
1067 1068 -1.5695957E5
1068 1067 -1.5846057E5
1068 1068 3.1542014E5
1068 1069 -1.5695957E5
1069 1068 -1.5846057E5
1069 1069 3.1542014E5
1069 1070 -1.5695957E5
1070 1069 -1.5846057E5
1070 1070 3.1542014E5
1070 1071 -1.5695957E5
1071 1070 -1.5846057E5
1071 1071 3.1542014E5
1071 1072 -1.5695957E5
1072 1071 -1.5846057E5
1072 1072 3.1542014E5
1072 1073 -1.5695957E5
1073 1072 -1.5846057E5
1073 1073 3.1542014E5
1073 1074 -1.5695957E5
1074 1073 -1.5846057E5
1074 1074 3.1542014E5
1074 1075 -1.5695957E5
1075 1074 -1.5846057E5
1075 1075 3.1542014E5
1075 1076 -1.5695957E5
1076 1075 -1.5846057E5
1076 1076 3.1542014E5
1076 1077 -1.5695957E5
1077 1076 -1.5846057E5
1077 1077 3.1542014E5
1077 1078 -1.5695957E5
1078 1077 -1.5846057E5
1078 1078 3.1542014E5
1078 1079 -1.5695957E5
1079 1078 -1.5846057E5
1079 1079 3.1542014E5
1079 1080 -1.5695957E5
1080 1079 -1.5846057E5
1080 1080 3.1542014E5
1080 1081 -1.5695957E5
1081 1080 -1.5846057E5
1081 1081 3.1542014E5
1081 1082 -1.5695957E5
1082 1081 -1.5846057E5
1082 1082 3.1542014E5
1082 1083 -1.5695957E5
1083 1082 -1.5846057E5
1083 1083 3.1542014E5
1083 1084 -1.5695957E5
1084 1083 -1.5846057E5
1084 1084 3.1542014E5
1084 1085 -1.5695957E5
1085 1084 -1.5846057E5
1085 1085 3.1542014E5
1085 1086 -1.5695957E5
1086 1085 -1.5846057E5
1086 1086 3.1542014E5
1086 1087 -1.5695957E5
1087 1086 -1.5846057E5
1087 1087 3.1542014E5
1087 1088 -1.5695957E5
1088 1087 -1.5846057E5
1088 1088 3.1542014E5
1088 1089 -1.5695957E5
1089 1088 -1.5846057E5
1089 1089 3.1542014E5
1089 1090 -1.5695957E5
1090 1089 -1.5846057E5
1090 1090 3.1542014E5
1090 1091 -1.5695957E5
1091 1090 -1.5846057E5
1091 1091 3.1542014E5
1091 1092 -1.5695957E5
1092 1091 -1.5846057E5
1092 1092 3.1542014E5
1092 1093 -1.5695957E5
1093 1092 -1.5846057E5
1093 1093 3.1542014E5
1093 1094 -1.5695957E5
1094 1093 -1.5846057E5
1094 1094 3.1542014E5
1094 1095 -1.5695957E5
1095 1094 -1.5846057E5
1095 1095 3.1542014E5
1095 1096 -1.5695957E5
1096 1095 -1.5846057E5
1096 1096 3.1542014E5
1096 1097 -1.5695957E5
1097 1096 -1.5846057E5
1097 1097 3.1542014E5
1097 1098 -1.5695957E5
1098 1097 -1.5846057E5
1098 1098 3.1542014E5
1098 1099 -1.5695957E5
1099 1098 -1.5846057E5
1099 1099 3.1542014E5
1099 1100 -1.5695957E5
1100 1099 -1.5846057E5
1100 1100 3.1542014E5
1100 1101 -1.5695957E5
1101 1100 -1.5846057E5
1101 1101 3.1542014E5
1101 1102 -1.5695957E5
1102 1101 -1.5846057E5
1102 1102 3.1542014E5
1102 1103 -1.5695957E5
1103 1102 -1.5846057E5
1103 1103 3.1542014E5
1103 1104 -1.5695957E5
1104 1103 -1.5846057E5
1104 1104 3.1542014E5
1104 1105 -1.5695957E5
1105 1104 -1.5846057E5
1105 1105 3.1542014E5
1105 1106 -1.5695957E5
1106 1105 -1.5846057E5
1106 1106 3.1542014E5
1106 1107 -1.5695957E5
1107 1106 -1.5846057E5
1107 1107 3.1542014E5
1107 1108 -1.5695957E5
1108 1107 -1.5846057E5
1108 1108 3.1542014E5
1108 1109 -1.5695957E5
1109 1108 -1.5846057E5
1109 1109 3.1542014E5
1109 1110 -1.5695957E5
1110 1109 -1.5846057E5
1110 1110 3.1542014E5
1110 1111 -1.5695957E5
1111 1110 -1.5846057E5
1111 1111 3.1542014E5
1111 1112 -1.5695957E5
1112 1111 -1.5846057E5
1112 1112 3.1542014E5
1112 1113 -1.5695957E5
1113 1112 -1.5846057E5
1113 1113 3.1542014E5
1113 1114 -1.5695957E5
1114 1113 -1.5846057E5
1114 1114 3.1542014E5
1114 1115 -1.5695957E5
1115 1114 -1.5846057E5
1115 1115 3.1542014E5
1115 1116 -1.5695957E5
1116 1115 -1.5846057E5
1116 1116 3.1542014E5
1116 1117 -1.5695957E5
1117 1116 -1.5846057E5
1117 1117 3.1542014E5
1117 1118 -1.5695957E5
1118 1117 -1.5846057E5
1118 1118 3.1542014E5
1118 1119 -1.5695957E5
1119 1118 -1.5846057E5
1119 1119 3.1542014E5
1119 1120 -1.5695957E5
1120 1119 -1.5846057E5
1120 1120 3.1542014E5
1120 1121 -1.5695957E5
1121 1120 -1.5846057E5
1121 1121 3.1542014E5
1121 1122 -1.5695957E5
1122 1121 -1.5846057E5
1122 1122 3.1542014E5
1122 1123 -1.5695957E5
1123 1122 -1.5846057E5
1123 1123 3.1542014E5
1123 1124 -1.5695957E5
1124 1123 -1.5846057E5
1124 1124 3.1542014E5
1124 1125 -1.5695957E5
1125 1124 -1.5846057E5
1125 1125 3.1542014E5
1125 1126 -1.5695957E5
1126 1125 -1.5846057E5
1126 1126 3.1542014E5
1126 1127 -1.5695957E5
1127 1126 -1.5846057E5
1127 1127 3.1542014E5
1127 1128 -1.5695957E5
1128 1127 -1.5846057E5
1128 1128 3.1542014E5
1128 1129 -1.5695957E5
1129 1128 -1.5846057E5
1129 1129 3.1542014E5
1129 1130 -1.5695957E5
1130 1129 -1.5846057E5
1130 1130 3.1542014E5
1130 1131 -1.5695957E5
1131 1130 -1.5846057E5
1131 1131 3.1542014E5
1131 1132 -1.5695957E5
1132 1131 -1.5846057E5
1132 1132 3.1542014E5
1132 1133 -1.5695957E5
1133 1132 -1.5846057E5
1133 1133 3.1542014E5
1133 1134 -1.5695957E5
1134 1133 -1.5846057E5
1134 1134 3.1542014E5
1134 1135 -1.5695957E5
1135 1134 -1.5846057E5
1135 1135 3.1542014E5
1135 1136 -1.5695957E5
1136 1135 -1.5846057E5
1136 1136 3.1542014E5
1136 1137 -1.5695957E5
1137 1136 -1.5846057E5
1137 1137 3.1542014E5
1137 1138 -1.5695957E5
1138 1137 -1.5846057E5
1138 1138 3.1542014E5
1138 1139 -1.5695957E5
1139 1138 -1.5846057E5
1139 1139 3.1542014E5
1139 1140 -1.5695957E5
1140 1139 -1.5846057E5
1140 1140 3.1542014E5
1140 1141 -1.5695957E5
1141 1140 -1.5846057E5
1141 1141 3.1542014E5
1141 1142 -1.5695957E5
1142 1141 -1.5846057E5
1142 1142 3.1542014E5
1142 1143 -1.5695957E5
1143 1142 -1.5846057E5
1143 1143 3.1542014E5
1143 1144 -1.5695957E5
1144 1143 -1.5846057E5
1144 1144 3.1542014E5
1144 1145 -1.5695957E5
1145 1144 -1.5846057E5
1145 1145 3.1542014E5
1145 1146 -1.5695957E5
1146 1145 -1.5846057E5
1146 1146 3.1542014E5
1146 1147 -1.5695957E5
1147 1146 -1.5846057E5
1147 1147 3.1542014E5
1147 1148 -1.5695957E5
1148 1147 -1.5846057E5
1148 1148 3.1542014E5
1148 1149 -1.5695957E5
1149 1148 -1.5846057E5
1149 1149 3.1542014E5
1149 1150 -1.5695957E5
1150 1149 -1.5846057E5
1150 1150 3.1542014E5
1150 1151 -1.5695957E5
1151 1150 -1.5846057E5
1151 1151 3.1542014E5
1151 1152 -1.5695957E5
1152 1151 -1.5846057E5
1152 1152 3.1542014E5
1152 1153 -1.5695957E5
1153 1152 -1.5846057E5
1153 1153 3.1542014E5
1153 1154 -1.5695957E5
1154 1153 -1.5846057E5
1154 1154 3.1542014E5
1154 1155 -1.5695957E5
1155 1154 -1.5846057E5
1155 1155 3.1542014E5
1155 1156 -1.5695957E5
1156 1155 -1.5846057E5
1156 1156 3.1542014E5
1156 1157 -1.5695957E5
1157 1156 -1.5846057E5
1157 1157 3.1542014E5
1157 1158 -1.5695957E5
1158 1157 -1.5846057E5
1158 1158 3.1542014E5
1158 1159 -1.5695957E5
1159 1158 -1.5846057E5
1159 1159 3.1542014E5
1159 1160 -1.5695957E5
1160 1159 -1.5846057E5
1160 1160 3.1542014E5
1160 1161 -1.5695957E5
1161 1160 -1.5846057E5
1161 1161 3.1542014E5
1161 1162 -1.5695957E5
1162 1161 -1.5846057E5
1162 1162 3.1542014E5
1162 1163 -1.5695957E5
1163 1162 -1.5846057E5
1163 1163 3.1542014E5
1163 1164 -1.5695957E5
1164 1163 -1.5846057E5
1164 1164 3.1542014E5
1164 1165 -1.5695957E5
1165 1164 -1.5846057E5
1165 1165 3.1542014E5
1165 1166 -1.5695957E5
1166 1165 -1.5846057E5
1166 1166 3.1542014E5
1166 1167 -1.5695957E5
1167 1166 -1.5846057E5
1167 1167 3.1542014E5
1167 1168 -1.5695957E5
1168 1167 -1.5846057E5
1168 1168 3.1542014E5
1168 1169 -1.5695957E5
1169 1168 -1.5846057E5
1169 1169 3.1542014E5
1169 1170 -1.5695957E5
1170 1169 -1.5846057E5
1170 1170 3.1542014E5
1170 1171 -1.5695957E5
1171 1170 -1.5846057E5
1171 1171 3.1542014E5
1171 1172 -1.5695957E5
1172 1171 -1.5846057E5
1172 1172 3.1542014E5
1172 1173 -1.5695957E5
1173 1172 -1.5846057E5
1173 1173 3.1542014E5
1173 1174 -1.5695957E5
1174 1173 -1.5846057E5
1174 1174 3.1542014E5
1174 1175 -1.5695957E5
1175 1174 -1.5846057E5
1175 1175 3.1542014E5
1175 1176 -1.5695957E5
1176 1175 -1.5846057E5
1176 1176 3.1542014E5
1176 1177 -1.5695957E5
1177 1176 -1.5846057E5
1177 1177 3.1542014E5
1177 1178 -1.5695957E5
1178 1177 -1.5846057E5
1178 1178 3.1542014E5
1178 1179 -1.5695957E5
1179 1178 -1.5846057E5
1179 1179 3.1542014E5
1179 1180 -1.5695957E5
1180 1179 -1.5846057E5
1180 1180 3.1542014E5
1180 1181 -1.5695957E5
1181 1180 -1.5846057E5
1181 1181 3.1542014E5
1181 1182 -1.5695957E5
1182 1181 -1.5846057E5
1182 1182 3.1542014E5
1182 1183 -1.5695957E5
1183 1182 -1.5846057E5
1183 1183 3.1542014E5
1183 1184 -1.5695957E5
1184 1183 -1.5846057E5
1184 1184 3.1542014E5
1184 1185 -1.5695957E5
1185 1184 -1.5846057E5
1185 1185 3.1542014E5
1185 1186 -1.5695957E5
1186 1185 -1.5846057E5
1186 1186 3.1542014E5
1186 1187 -1.5695957E5
1187 1186 -1.5846057E5
1187 1187 3.1542014E5
1187 1188 -1.5695957E5
1188 1187 -1.5846057E5
1188 1188 3.1542014E5
1188 1189 -1.5695957E5
1189 1188 -1.5846057E5
1189 1189 3.1542014E5
1189 1190 -1.5695957E5
1190 1189 -1.5846057E5
1190 1190 3.1542014E5
1190 1191 -1.5695957E5
1191 1190 -1.5846057E5
1191 1191 3.1542014E5
1191 1192 -1.5695957E5
1192 1191 -1.5846057E5
1192 1192 3.1542014E5
1192 1193 -1.5695957E5
1193 1192 -1.5846057E5
1193 1193 3.1542014E5
1193 1194 -1.5695957E5
1194 1193 -1.5846057E5
1194 1194 3.1542014E5
1194 1195 -1.5695957E5
1195 1194 -1.5846057E5
1195 1195 3.1542014E5
1195 1196 -1.5695957E5
1196 1195 -1.5846057E5
1196 1196 3.1542014E5
1196 1197 -1.5695957E5
1197 1196 -1.5846057E5
1197 1197 3.1542014E5
1197 1198 -1.5695957E5
1198 1197 -1.5846057E5
1198 1198 3.1542014E5
1198 1199 -1.5695957E5
1199 1198 -1.5846057E5
1199 1199 3.1542014E5
1199 1200 -1.5695957E5
1200 1199 -1.5846057E5
1200 1200 3.1542014E5
1200 1201 -1.5695957E5
1201 1200 -1.5846057E5
1201 1201 3.1542014E5
1201 1202 -1.5695957E5
1202 1201 -1.5846057E5
1202 1202 3.1542014E5
1202 1203 -1.5695957E5
1203 1202 -1.5846057E5
1203 1203 3.1542014E5
1203 1204 -1.5695957E5
1204 1203 -1.5846057E5
1204 1204 3.1542014E5
1204 1205 -1.5695957E5
1205 1204 -1.5846057E5
1205 1205 3.1542014E5
1205 1206 -1.5695957E5
1206 1205 -1.5846057E5
1206 1206 3.1542014E5
1206 1207 -1.5695957E5
1207 1206 -1.5846057E5
1207 1207 3.1542014E5
1207 1208 -1.5695957E5
1208 1207 -1.5846057E5
1208 1208 3.1542014E5
1208 1209 -1.5695957E5
1209 1208 -1.5846057E5
1209 1209 3.1542014E5
1209 1210 -1.5695957E5
1210 1209 -1.5846057E5
1210 1210 3.1542014E5
1210 1211 -1.5695957E5
1211 1210 -1.5846057E5
1211 1211 3.1542014E5
1211 1212 -1.5695957E5
1212 1211 -1.5846057E5
1212 1212 3.1542014E5
1212 1213 -1.5695957E5
1213 1212 -1.5846057E5
1213 1213 3.1542014E5
1213 1214 -1.5695957E5
1214 1213 -1.5846057E5
1214 1214 3.1542014E5
1214 1215 -1.5695957E5
1215 1214 -1.5846057E5
1215 1215 3.1542014E5
1215 1216 -1.5695957E5
1216 1215 -1.5846057E5
1216 1216 3.1542014E5
1216 1217 -1.5695957E5
1217 1216 -1.5846057E5
1217 1217 3.1542014E5
1217 1218 -1.5695957E5
1218 1217 -1.5846057E5
1218 1218 3.1542014E5
1218 1219 -1.5695957E5
1219 1218 -1.5846057E5
1219 1219 3.1542014E5
1219 1220 -1.5695957E5
1220 1219 -1.5846057E5
1220 1220 3.1542014E5
1220 1221 -1.5695957E5
1221 1220 -1.5846057E5
1221 1221 3.1542014E5
1221 1222 -1.5695957E5
1222 1221 -1.5846057E5
1222 1222 3.1542014E5
1222 1223 -1.5695957E5
1223 1222 -1.5846057E5
1223 1223 3.1542014E5
1223 1224 -1.5695957E5
1224 1223 -1.5846057E5
1224 1224 3.1542014E5
1224 1225 -1.5695957E5
1225 1224 -1.5846057E5
1225 1225 3.1542014E5
1225 1226 -1.5695957E5
1226 1225 -1.5846057E5
1226 1226 3.1542014E5
1226 1227 -1.5695957E5
1227 1226 -1.5846057E5
1227 1227 3.1542014E5
1227 1228 -1.5695957E5
1228 1227 -1.5846057E5
1228 1228 3.1542014E5
1228 1229 -1.5695957E5
1229 1228 -1.5846057E5
1229 1229 3.1542014E5
1229 1230 -1.5695957E5
1230 1229 -1.5846057E5
1230 1230 3.1542014E5
1230 1231 -1.5695957E5
1231 1230 -1.5846057E5
1231 1231 3.1542014E5
1231 1232 -1.5695957E5
1232 1231 -1.5846057E5
1232 1232 3.1542014E5
1232 1233 -1.5695957E5
1233 1232 -1.5846057E5
1233 1233 3.1542014E5
1233 1234 -1.5695957E5
1234 1233 -1.5846057E5
1234 1234 3.1542014E5
1234 1235 -1.5695957E5
1235 1234 -1.5846057E5
1235 1235 3.1542014E5
1235 1236 -1.5695957E5
1236 1235 -1.5846057E5
1236 1236 3.1542014E5
1236 1237 -1.5695957E5
1237 1236 -1.5846057E5
1237 1237 3.1542014E5
1237 1238 -1.5695957E5
1238 1237 -1.5846057E5
1238 1238 3.1542014E5
1238 1239 -1.5695957E5
1239 1238 -1.5846057E5
1239 1239 3.1542014E5
1239 1240 -1.5695957E5
1240 1239 -1.5846057E5
1240 1240 3.1542014E5
1240 1241 -1.5695957E5
1241 1240 -1.5846057E5
1241 1241 3.1542014E5
1241 1242 -1.5695957E5
1242 1241 -1.5846057E5
1242 1242 3.1542014E5
1242 1243 -1.5695957E5
1243 1242 -1.5846057E5
1243 1243 3.1542014E5
1243 1244 -1.5695957E5
1244 1243 -1.5846057E5
1244 1244 3.1542014E5
1244 1245 -1.5695957E5
1245 1244 -1.5846057E5
1245 1245 3.1542014E5
1245 1246 -1.5695957E5
1246 1245 -1.5846057E5
1246 1246 3.1542014E5
1246 1247 -1.5695957E5
1247 1246 -1.5846057E5
1247 1247 3.1542014E5
1247 1248 -1.5695957E5
1248 1247 -1.5846057E5
1248 1248 3.1542014E5
1248 1249 -1.5695957E5
1249 1248 -1.5846057E5
1249 1249 3.1542014E5
1249 1250 -1.5695957E5
1250 1249 -1.5846057E5
1250 1250 3.1542014E5
1250 1251 -1.5695957E5
1251 1250 -1.5846057E5
1251 1251 3.1542014E5
1251 1252 -1.5695957E5
1252 1251 -1.5846057E5
1252 1252 3.1542014E5
1252 1253 -1.5695957E5
1253 1252 -1.5846057E5
1253 1253 3.1542014E5
1253 1254 -1.5695957E5
1254 1253 -1.5846057E5
1254 1254 3.1542014E5
1254 1255 -1.5695957E5
1255 1254 -1.5846057E5
1255 1255 3.1542014E5
1255 1256 -1.5695957E5
1256 1255 -1.5846057E5
1256 1256 3.1542014E5
1256 1257 -1.5695957E5
1257 1256 -1.5846057E5
1257 1257 3.1542014E5
1257 1258 -1.5695957E5
1258 1257 -1.5846057E5
1258 1258 3.1542014E5
1258 1259 -1.5695957E5
1259 1258 -1.5846057E5
1259 1259 3.1542014E5
1259 1260 -1.5695957E5
1260 1259 -1.5846057E5
1260 1260 3.1542014E5
1260 1261 -1.5695957E5
1261 1260 -1.5846057E5
1261 1261 3.1542014E5
1261 1262 -1.5695957E5
1262 1261 -1.5846057E5
1262 1262 3.1542014E5
1262 1263 -1.5695957E5
1263 1262 -1.5846057E5
1263 1263 3.1542014E5
1263 1264 -1.5695957E5
1264 1263 -1.5846057E5
1264 1264 3.1542014E5
1264 1265 -1.5695957E5
1265 1264 -1.5846057E5
1265 1265 3.1542014E5
1265 1266 -1.5695957E5
1266 1265 -1.5846057E5
1266 1266 3.1542014E5
1266 1267 -1.5695957E5
1267 1266 -1.5846057E5
1267 1267 3.1542014E5
1267 1268 -1.5695957E5
1268 1267 -1.5846057E5
1268 1268 3.1542014E5
1268 1269 -1.5695957E5
1269 1268 -1.5846057E5
1269 1269 3.1542014E5
1269 1270 -1.5695957E5
1270 1269 -1.5846057E5
1270 1270 3.1542014E5
1270 1271 -1.5695957E5
1271 1270 -1.5846057E5
1271 1271 3.1542014E5
1271 1272 -1.5695957E5
1272 1271 -1.5846057E5
1272 1272 3.1542014E5
1272 1273 -1.5695957E5
1273 1272 -1.5846057E5
1273 1273 3.1542014E5
1273 1274 -1.5695957E5
1274 1273 -1.5846057E5
1274 1274 3.1542014E5
1274 1275 -1.5695957E5
1275 1274 -1.5846057E5
1275 1275 3.1542014E5
1275 1276 -1.5695957E5
1276 1275 -1.5846057E5
1276 1276 3.1542014E5
1276 1277 -1.5695957E5
1277 1276 -1.5846057E5
1277 1277 3.1542014E5
1277 1278 -1.5695957E5
1278 1277 -1.5846057E5
1278 1278 3.1542014E5
1278 1279 -1.5695957E5
1279 1278 -1.5846057E5
1279 1279 3.1542014E5
1279 1280 -1.5695957E5
1280 1279 -1.5846057E5
1280 1280 3.1542014E5
1280 1281 -1.5695957E5
1281 1280 -1.5846057E5
1281 1281 3.1542014E5
1281 1282 -1.5695957E5
1282 1281 -1.5846057E5
1282 1282 3.1542014E5
1282 1283 -1.5695957E5
1283 1282 -1.5846057E5
1283 1283 3.1542014E5
1283 1284 -1.5695957E5
1284 1283 -1.5846057E5
1284 1284 3.1542014E5
1284 1285 -1.5695957E5
1285 1284 -1.5846057E5
1285 1285 3.1542014E5
1285 1286 -1.5695957E5
1286 1285 -1.5846057E5
1286 1286 3.1542014E5
1286 1287 -1.5695957E5
1287 1286 -1.5846057E5
1287 1287 3.1542014E5
1287 1288 -1.5695957E5
1288 1287 -1.5846057E5
1288 1288 3.1542014E5
1288 1289 -1.5695957E5
1289 1288 -1.5846057E5
1289 1289 3.1542014E5
1289 1290 -1.5695957E5
1290 1289 -1.5846057E5
1290 1290 3.1542014E5
1290 1291 -1.5695957E5
1291 1290 -1.5846057E5
1291 1291 3.1542014E5
1291 1292 -1.5695957E5
1292 1291 -1.5846057E5
1292 1292 3.1542014E5
1292 1293 -1.5695957E5
1293 1292 -1.5846057E5
1293 1293 3.1542014E5
1293 1294 -1.5695957E5
1294 1293 -1.5846057E5
1294 1294 3.1542014E5
1294 1295 -1.5695957E5
1295 1294 -1.5846057E5
1295 1295 3.1542014E5
1295 1296 -1.5695957E5
1296 1295 -1.5846057E5
1296 1296 3.1542014E5
1296 1297 -1.5695957E5
1297 1296 -1.5846057E5
1297 1297 3.1542014E5
1297 1298 -1.5695957E5
1298 1297 -1.5846057E5
1298 1298 3.1542014E5
1298 1299 -1.5695957E5
1299 1298 -1.5846057E5
1299 1299 3.1542014E5
1299 1300 -1.5695957E5
1300 1299 -1.5846057E5
1300 1300 3.1542014E5
1300 1301 -1.5695957E5
1301 1300 -1.5846057E5
1301 1301 3.1542014E5
1301 1302 -1.5695957E5
1302 1301 -1.5846057E5
1302 1302 3.1542014E5
1302 1303 -1.5695957E5
1303 1302 -1.5846057E5
1303 1303 3.1542014E5
1303 1304 -1.5695957E5
1304 1303 -1.5846057E5
1304 1304 3.1542014E5
1304 1305 -1.5695957E5
1305 1304 -1.5846057E5
1305 1305 3.1542014E5
1305 1306 -1.5695957E5
1306 1305 -1.5846057E5
1306 1306 3.1542014E5
1306 1307 -1.5695957E5
1307 1306 -1.5846057E5
1307 1307 3.1542014E5
1307 1308 -1.5695957E5
1308 1307 -1.5846057E5
1308 1308 3.1542014E5
1308 1309 -1.5695957E5
1309 1308 -1.5846057E5
1309 1309 3.1542014E5
1309 1310 -1.5695957E5
1310 1309 -1.5846057E5
1310 1310 3.1542014E5
1310 1311 -1.5695957E5
1311 1310 -1.5846057E5
1311 1311 3.1542014E5
1311 1312 -1.5695957E5
1312 1311 -1.5846057E5
1312 1312 3.1542014E5
1312 1313 -1.5695957E5
1313 1312 -1.5846057E5
1313 1313 3.1542014E5
1313 1314 -1.5695957E5
1314 1313 -1.5846057E5
1314 1314 3.1542014E5
1314 1315 -1.5695957E5
1315 1314 -1.5846057E5
1315 1315 3.1542014E5
1315 1316 -1.5695957E5
1316 1315 -1.5846057E5
1316 1316 3.1542014E5
1316 1317 -1.5695957E5
1317 1316 -1.5846057E5
1317 1317 3.1542014E5
1317 1318 -1.5695957E5
1318 1317 -1.5846057E5
1318 1318 3.1542014E5
1318 1319 -1.5695957E5
1319 1318 -1.5846057E5
1319 1319 3.1542014E5
1319 1320 -1.5695957E5
1320 1319 -1.5846057E5
1320 1320 3.1542014E5
1320 1321 -1.5695957E5
1321 1320 -1.5846057E5
1321 1321 3.1542014E5
1321 1322 -1.5695957E5
1322 1321 -1.5846057E5
1322 1322 3.1542014E5
1322 1323 -1.5695957E5
1323 1322 -1.5846057E5
1323 1323 3.1542014E5
1323 1324 -1.5695957E5
1324 1323 -1.5846057E5
1324 1324 3.1542014E5
1324 1325 -1.5695957E5
1325 1324 -1.5846057E5
1325 1325 3.1542014E5
1325 1326 -1.5695957E5
1326 1325 -1.5846057E5
1326 1326 3.1542014E5
1326 1327 -1.5695957E5
1327 1326 -1.5846057E5
1327 1327 3.1542014E5
1327 1328 -1.5695957E5
1328 1327 -1.5846057E5
1328 1328 3.1542014E5
1328 1329 -1.5695957E5
1329 1328 -1.5846057E5
1329 1329 3.1542014E5
1329 1330 -1.5695957E5
1330 1329 -1.5846057E5
1330 1330 3.1542014E5
1330 1331 -1.5695957E5
1331 1330 -1.5846057E5
1331 1331 3.1542014E5
1331 1332 -1.5695957E5
1332 1331 -1.5846057E5
1332 1332 3.1542014E5
1332 1333 -1.5695957E5
1333 1332 -1.5846057E5
1333 1333 3.1542014E5
1333 1334 -1.5695957E5
1334 1333 -1.5846057E5
1334 1334 3.1542014E5
1334 1335 -1.5695957E5
1335 1334 -1.5846057E5
1335 1335 3.1542014E5
1335 1336 -1.5695957E5
1336 1335 -1.5846057E5
1336 1336 3.1542014E5
1336 1337 -1.5695957E5
1337 1336 -1.5846057E5
1337 1337 3.1542014E5
1337 1338 -1.5695957E5
1338 1337 -1.5846057E5
1338 1338 3.1542014E5
1338 1339 -1.5695957E5
1339 1338 -1.5846057E5
1339 1339 3.1542014E5
1339 1340 -1.5695957E5
1340 1339 -1.5846057E5
1340 1340 3.1542014E5
1340 1341 -1.5695957E5
1341 1340 -1.5846057E5
1341 1341 3.1542014E5
1341 1342 -1.5695957E5
1342 1341 -1.5846057E5
1342 1342 3.1542014E5
1342 1343 -1.5695957E5
1343 1342 -1.5846057E5
1343 1343 3.1542014E5
1343 1344 -1.5695957E5
1344 1343 -1.5846057E5
1344 1344 3.1542014E5
1344 1345 -1.5695957E5
1345 1344 -1.5846057E5
1345 1345 3.1542014E5
1345 1346 -1.5695957E5
1346 1345 -1.5846057E5
1346 1346 3.1542014E5
1346 1347 -1.5695957E5
1347 1346 -1.5846057E5
1347 1347 3.1542014E5
1347 1348 -1.5695957E5
1348 1347 -1.5846057E5
1348 1348 3.1542014E5
1348 1349 -1.5695957E5
1349 1348 -1.5846057E5
1349 1349 3.1542014E5
1349 1350 -1.5695957E5
1350 1349 -1.5846057E5
1350 1350 3.1542014E5
1350 1351 -1.5695957E5
1351 1350 -1.5846057E5
1351 1351 3.1542014E5
1351 1352 -1.5695957E5
1352 1351 -1.5846057E5
1352 1352 3.1542014E5
1352 1353 -1.5695957E5
1353 1352 -1.5846057E5
1353 1353 3.1542014E5
1353 1354 -1.5695957E5
1354 1353 -1.5846057E5
1354 1354 3.1542014E5
1354 1355 -1.5695957E5
1355 1354 -1.5846057E5
1355 1355 3.1542014E5
1355 1356 -1.5695957E5
1356 1355 -1.5846057E5
1356 1356 3.1542014E5
1356 1357 -1.5695957E5
1357 1356 -1.5846057E5
1357 1357 3.1542014E5
1357 1358 -1.5695957E5
1358 1357 -1.5846057E5
1358 1358 3.1542014E5
1358 1359 -1.5695957E5
1359 1358 -1.5846057E5
1359 1359 3.1542014E5
1359 1360 -1.5695957E5
1360 1359 -1.5846057E5
1360 1360 3.1542014E5
1360 1361 -1.5695957E5
1361 1360 -1.5846057E5
1361 1361 3.1542014E5
1361 1362 -1.5695957E5
1362 1361 -1.5846057E5
1362 1362 3.1542014E5
1362 1363 -1.5695957E5
1363 1362 -1.5846057E5
1363 1363 3.1542014E5
1363 1364 -1.5695957E5
1364 1363 -1.5846057E5
1364 1364 3.1542014E5
1364 1365 -1.5695957E5
1365 1364 -1.5846057E5
1365 1365 3.1542014E5
1365 1366 -1.5695957E5
1366 1365 -1.5846057E5
1366 1366 3.1542014E5
1366 1367 -1.5695957E5
1367 1366 -1.5846057E5
1367 1367 3.1542014E5
1367 1368 -1.5695957E5
1368 1367 -1.5846057E5
1368 1368 3.1542014E5
1368 1369 -1.5695957E5
1369 1368 -1.5846057E5
1369 1369 3.1542014E5
1369 1370 -1.5695957E5
1370 1369 -1.5846057E5
1370 1370 3.1542014E5
1370 1371 -1.5695957E5
1371 1370 -1.5846057E5
1371 1371 3.1542014E5
1371 1372 -1.5695957E5
1372 1371 -1.5846057E5
1372 1372 3.1542014E5
1372 1373 -1.5695957E5
1373 1372 -1.5846057E5
1373 1373 3.1542014E5
1373 1374 -1.5695957E5
1374 1373 -1.5846057E5
1374 1374 3.1542014E5
1374 1375 -1.5695957E5
1375 1374 -1.5846057E5
1375 1375 3.1542014E5
1375 1376 -1.5695957E5
1376 1375 -1.5846057E5
1376 1376 3.1542014E5
1376 1377 -1.5695957E5
1377 1376 -1.5846057E5
1377 1377 3.1542014E5
1377 1378 -1.5695957E5
1378 1377 -1.5846057E5
1378 1378 3.1542014E5
1378 1379 -1.5695957E5
1379 1378 -1.5846057E5
1379 1379 3.1542014E5
1379 1380 -1.5695957E5
1380 1379 -1.5846057E5
1380 1380 3.1542014E5
1380 1381 -1.5695957E5
1381 1380 -1.5846057E5
1381 1381 3.1542014E5
1381 1382 -1.5695957E5
1382 1381 -1.5846057E5
1382 1382 3.1542014E5
1382 1383 -1.5695957E5
1383 1382 -1.5846057E5
1383 1383 3.1542014E5
1383 1384 -1.5695957E5
1384 1383 -1.5846057E5
1384 1384 3.1542014E5
1384 1385 -1.5695957E5
1385 1384 -1.5846057E5
1385 1385 3.1542014E5
1385 1386 -1.5695957E5
1386 1385 -1.5846057E5
1386 1386 3.1542014E5
1386 1387 -1.5695957E5
1387 1386 -1.5846057E5
1387 1387 3.1542014E5
1387 1388 -1.5695957E5
1388 1387 -1.5846057E5
1388 1388 3.1542014E5
1388 1389 -1.5695957E5
1389 1388 -1.5846057E5
1389 1389 3.1542014E5
1389 1390 -1.5695957E5
1390 1389 -1.5846057E5
1390 1390 3.1542014E5
1390 1391 -1.5695957E5
1391 1390 -1.5846057E5
1391 1391 3.1542014E5
1391 1392 -1.5695957E5
1392 1391 -1.5846057E5
1392 1392 3.1542014E5
1392 1393 -1.5695957E5
1393 1392 -1.5846057E5
1393 1393 3.1542014E5
1393 1394 -1.5695957E5
1394 1393 -1.5846057E5
1394 1394 3.1542014E5
1394 1395 -1.5695957E5
1395 1394 -1.5846057E5
1395 1395 3.1542014E5
1395 1396 -1.5695957E5
1396 1395 -1.5846057E5
1396 1396 3.1542014E5
1396 1397 -1.5695957E5
1397 1396 -1.5846057E5
1397 1397 3.1542014E5
1397 1398 -1.5695957E5
1398 1397 -1.5846057E5
1398 1398 3.1542014E5
1398 1399 -1.5695957E5
1399 1398 -1.5846057E5
1399 1399 3.1542014E5
1399 1400 -1.5695957E5
1400 1399 -1.5846057E5
1400 1400 3.1542014E5
1400 1401 -1.5695957E5
1401 1400 -1.5846057E5
1401 1401 3.1542014E5
1401 1402 -1.5695957E5
1402 1401 -1.5846057E5
1402 1402 3.1542014E5
1402 1403 -1.5695957E5
1403 1402 -1.5846057E5
1403 1403 3.1542014E5
1403 1404 -1.5695957E5
1404 1403 -1.5846057E5
1404 1404 3.1542014E5
1404 1405 -1.5695957E5
1405 1404 -1.5846057E5
1405 1405 3.1542014E5
1405 1406 -1.5695957E5
1406 1405 -1.5846057E5
1406 1406 3.1542014E5
1406 1407 -1.5695957E5
1407 1406 -1.5846057E5
1407 1407 3.1542014E5
1407 1408 -1.5695957E5
1408 1407 -1.5846057E5
1408 1408 3.1542014E5
1408 1409 -1.5695957E5
1409 1408 -1.5846057E5
1409 1409 3.1542014E5
1409 1410 -1.5695957E5
1410 1409 -1.5846057E5
1410 1410 3.1542014E5
1410 1411 -1.5695957E5
1411 1410 -1.5846057E5
1411 1411 3.1542014E5
1411 1412 -1.5695957E5
1412 1411 -1.5846057E5
1412 1412 3.1542014E5
1412 1413 -1.5695957E5
1413 1412 -1.5846057E5
1413 1413 3.1542014E5
1413 1414 -1.5695957E5
1414 1413 -1.5846057E5
1414 1414 3.1542014E5
1414 1415 -1.5695957E5
1415 1414 -1.5846057E5
1415 1415 3.1542014E5
1415 1416 -1.5695957E5
1416 1415 -1.5846057E5
1416 1416 3.1542014E5
1416 1417 -1.5695957E5
1417 1416 -1.5846057E5
1417 1417 3.1542014E5
1417 1418 -1.5695957E5
1418 1417 -1.5846057E5
1418 1418 3.1542014E5
1418 1419 -1.5695957E5
1419 1418 -1.5846057E5
1419 1419 3.1542014E5
1419 1420 -1.5695957E5
1420 1419 -1.5846057E5
1420 1420 3.1542014E5
1420 1421 -1.5695957E5
1421 1420 -1.5846057E5
1421 1421 3.1542014E5
1421 1422 -1.5695957E5
1422 1421 -1.5846057E5
1422 1422 3.1542014E5
1422 1423 -1.5695957E5
1423 1422 -1.5846057E5
1423 1423 3.1542014E5
1423 1424 -1.5695957E5
1424 1423 -1.5846057E5
1424 1424 3.1542014E5
1424 1425 -1.5695957E5
1425 1424 -1.5846057E5
1425 1425 3.1542014E5
1425 1426 -1.5695957E5
1426 1425 -1.5846057E5
1426 1426 3.1542014E5
1426 1427 -1.5695957E5
1427 1426 -1.5846057E5
1427 1427 3.1542014E5
1427 1428 -1.5695957E5
1428 1427 -1.5846057E5
1428 1428 3.1542014E5
1428 1429 -1.5695957E5
1429 1428 -1.5846057E5
1429 1429 3.1542014E5
1429 1430 -1.5695957E5
1430 1429 -1.5846057E5
1430 1430 3.1542014E5
1430 1431 -1.5695957E5
1431 1430 -1.5846057E5
1431 1431 3.1542014E5
1431 1432 -1.5695957E5
1432 1431 -1.5846057E5
1432 1432 3.1542014E5
1432 1433 -1.5695957E5
1433 1432 -1.5846057E5
1433 1433 3.1542014E5
1433 1434 -1.5695957E5
1434 1433 -1.5846057E5
1434 1434 3.1542014E5
1434 1435 -1.5695957E5
1435 1434 -1.5846057E5
1435 1435 3.1542014E5
1435 1436 -1.5695957E5
1436 1435 -1.5846057E5
1436 1436 3.1542014E5
1436 1437 -1.5695957E5
1437 1436 -1.5846057E5
1437 1437 3.1542014E5
1437 1438 -1.5695957E5
1438 1437 -1.5846057E5
1438 1438 3.1542014E5
1438 1439 -1.5695957E5
1439 1438 -1.5846057E5
1439 1439 3.1542014E5
1439 1440 -1.5695957E5
1440 1439 -1.5846057E5
1440 1440 3.1542014E5
1440 1441 -1.5695957E5
1441 1440 -1.5846057E5
1441 1441 3.1542014E5
1441 1442 -1.5695957E5
1442 1441 -1.5846057E5
1442 1442 3.1542014E5
1442 1443 -1.5695957E5
1443 1442 -1.5846057E5
1443 1443 3.1542014E5
1443 1444 -1.5695957E5
1444 1443 -1.5846057E5
1444 1444 3.1542014E5
1444 1445 -1.5695957E5
1445 1444 -1.5846057E5
1445 1445 3.1542014E5
1445 1446 -1.5695957E5
1446 1445 -1.5846057E5
1446 1446 3.1542014E5
1446 1447 -1.5695957E5
1447 1446 -1.5846057E5
1447 1447 3.1542014E5
1447 1448 -1.5695957E5
1448 1447 -1.5846057E5
1448 1448 3.1542014E5
1448 1449 -1.5695957E5
1449 1448 -1.5846057E5
1449 1449 3.1542014E5
1449 1450 -1.5695957E5
1450 1449 -1.5846057E5
1450 1450 3.1542014E5
1450 1451 -1.5695957E5
1451 1450 -1.5846057E5
1451 1451 3.1542014E5
1451 1452 -1.5695957E5
1452 1451 -1.5846057E5
1452 1452 3.1542014E5
1452 1453 -1.5695957E5
1453 1452 -1.5846057E5
1453 1453 3.1542014E5
1453 1454 -1.5695957E5
1454 1453 -1.5846057E5
1454 1454 3.1542014E5
1454 1455 -1.5695957E5
1455 1454 -1.5846057E5
1455 1455 3.1542014E5
1455 1456 -1.5695957E5
1456 1455 -1.5846057E5
1456 1456 3.1542014E5
1456 1457 -1.5695957E5
1457 1456 -1.5846057E5
1457 1457 3.1542014E5
1457 1458 -1.5695957E5
1458 1457 -1.5846057E5
1458 1458 3.1542014E5
1458 1459 -1.5695957E5
1459 1458 -1.5846057E5
1459 1459 3.1542014E5
1459 1460 -1.5695957E5
1460 1459 -1.5846057E5
1460 1460 3.1542014E5
1460 1461 -1.5695957E5
1461 1460 -1.5846057E5
1461 1461 3.1542014E5
1461 1462 -1.5695957E5
1462 1461 -1.5846057E5
1462 1462 3.1542014E5
1462 1463 -1.5695957E5
1463 1462 -1.5846057E5
1463 1463 3.1542014E5
1463 1464 -1.5695957E5
1464 1463 -1.5846057E5
1464 1464 3.1542014E5
1464 1465 -1.5695957E5
1465 1464 -1.5846057E5
1465 1465 3.1542014E5
1465 1466 -1.5695957E5
1466 1465 -1.5846057E5
1466 1466 3.1542014E5
1466 1467 -1.5695957E5
1467 1466 -1.5846057E5
1467 1467 3.1542014E5
1467 1468 -1.5695957E5
1468 1467 -1.5846057E5
1468 1468 3.1542014E5
1468 1469 -1.5695957E5
1469 1468 -1.5846057E5
1469 1469 3.1542014E5
1469 1470 -1.5695957E5
1470 1469 -1.5846057E5
1470 1470 3.1542014E5
1470 1471 -1.5695957E5
1471 1470 -1.5846057E5
1471 1471 3.1542014E5
1471 1472 -1.5695957E5
1472 1471 -1.5846057E5
1472 1472 3.1542014E5
1472 1473 -1.5695957E5
1473 1472 -1.5846057E5
1473 1473 3.1542014E5
1473 1474 -1.5695957E5
1474 1473 -1.5846057E5
1474 1474 3.1542014E5
1474 1475 -1.5695957E5
1475 1474 -1.5846057E5
1475 1475 3.1542014E5
1475 1476 -1.5695957E5
1476 1475 -1.5846057E5
1476 1476 3.1542014E5
1476 1477 -1.5695957E5
1477 1476 -1.5846057E5
1477 1477 3.1542014E5
1477 1478 -1.5695957E5
1478 1477 -1.5846057E5
1478 1478 3.1542014E5
1478 1479 -1.5695957E5
1479 1478 -1.5846057E5
1479 1479 3.1542014E5
1479 1480 -1.5695957E5
1480 1479 -1.5846057E5
1480 1480 3.1542014E5
1480 1481 -1.5695957E5
1481 1480 -1.5846057E5
1481 1481 3.1542014E5
1481 1482 -1.5695957E5
1482 1481 -1.5846057E5
1482 1482 3.1542014E5
1482 1483 -1.5695957E5
1483 1482 -1.5846057E5
1483 1483 3.1542014E5
1483 1484 -1.5695957E5
1484 1483 -1.5846057E5
1484 1484 3.1542014E5
1484 1485 -1.5695957E5
1485 1484 -1.5846057E5
1485 1485 3.1542014E5
1485 1486 -1.5695957E5
1486 1485 -1.5846057E5
1486 1486 3.1542014E5
1486 1487 -1.5695957E5
1487 1486 -1.5846057E5
1487 1487 3.1542014E5
1487 1488 -1.5695957E5
1488 1487 -1.5846057E5
1488 1488 3.1542014E5
1488 1489 -1.5695957E5
1489 1488 -1.5846057E5
1489 1489 3.1542014E5
1489 1490 -1.5695957E5
1490 1489 -1.5846057E5
1490 1490 3.1542014E5
1490 1491 -1.5695957E5
1491 1490 -1.5846057E5
1491 1491 3.1542014E5
1491 1492 -1.5695957E5
1492 1491 -1.5846057E5
1492 1492 3.1542014E5
1492 1493 -1.5695957E5
1493 1492 -1.5846057E5
1493 1493 3.1542014E5
1493 1494 -1.5695957E5
1494 1493 -1.5846057E5
1494 1494 3.1542014E5
1494 1495 -1.5695957E5
1495 1494 -1.5846057E5
1495 1495 3.1542014E5
1495 1496 -1.5695957E5
1496 1495 -1.5846057E5
1496 1496 3.1542014E5
1496 1497 -1.5695957E5
1497 1496 -1.5846057E5
1497 1497 3.1542014E5
1497 1498 -1.5695957E5
1498 1497 -1.5846057E5
1498 1498 3.1542014E5
1498 1499 -1.5695957E5
1499 1498 -1.5846057E5
1499 1499 3.1542014E5
1499 1500 -1.5695957E5
1500 1499 -1.5846057E5
1500 1500 3.1542014E5
