%%MatrixMarket matrix coordinate real general
% 1D convection-diffusion (-eps*u'' + beta*u' = f), central FD, n=1100, eps=0.25, beta=1.0, kappa~=349599
1100 1100 3298
1 1 6.061005E5
1 2 -3.0249975E5
2 1 -3.0360075E5
2 2 6.061005E5
2 3 -3.0249975E5
3 2 -3.0360075E5
3 3 6.061005E5
3 4 -3.0249975E5
4 3 -3.0360075E5
4 4 6.061005E5
4 5 -3.0249975E5
5 4 -3.0360075E5
5 5 6.061005E5
5 6 -3.0249975E5
6 5 -3.0360075E5
6 6 6.061005E5
6 7 -3.0249975E5
7 6 -3.0360075E5
7 7 6.061005E5
7 8 -3.0249975E5
8 7 -3.0360075E5
8 8 6.061005E5
8 9 -3.0249975E5
9 8 -3.0360075E5
9 9 6.061005E5
9 10 -3.0249975E5
10 9 -3.0360075E5
10 10 6.061005E5
10 11 -3.0249975E5
11 10 -3.0360075E5
11 11 6.061005E5
11 12 -3.0249975E5
12 11 -3.0360075E5
12 12 6.061005E5
12 13 -3.0249975E5
13 12 -3.0360075E5
13 13 6.061005E5
13 14 -3.0249975E5
14 13 -3.0360075E5
14 14 6.061005E5
14 15 -3.0249975E5
15 14 -3.0360075E5
15 15 6.061005E5
15 16 -3.0249975E5
16 15 -3.0360075E5
16 16 6.061005E5
16 17 -3.0249975E5
17 16 -3.0360075E5
17 17 6.061005E5
17 18 -3.0249975E5
18 17 -3.0360075E5
18 18 6.061005E5
18 19 -3.0249975E5
19 18 -3.0360075E5
19 19 6.061005E5
19 20 -3.0249975E5
20 19 -3.0360075E5
20 20 6.061005E5
20 21 -3.0249975E5
21 20 -3.0360075E5
21 21 6.061005E5
21 22 -3.0249975E5
22 21 -3.0360075E5
22 22 6.061005E5
22 23 -3.0249975E5
23 22 -3.0360075E5
23 23 6.061005E5
23 24 -3.0249975E5
24 23 -3.0360075E5
24 24 6.061005E5
24 25 -3.0249975E5
25 24 -3.0360075E5
25 25 6.061005E5
25 26 -3.0249975E5
26 25 -3.0360075E5
26 26 6.061005E5
26 27 -3.0249975E5
27 26 -3.0360075E5
27 27 6.061005E5
27 28 -3.0249975E5
28 27 -3.0360075E5
28 28 6.061005E5
28 29 -3.0249975E5
29 28 -3.0360075E5
29 29 6.061005E5
29 30 -3.0249975E5
30 29 -3.0360075E5
30 30 6.061005E5
30 31 -3.0249975E5
31 30 -3.0360075E5
31 31 6.061005E5
31 32 -3.0249975E5
32 31 -3.0360075E5
32 32 6.061005E5
32 33 -3.0249975E5
33 32 -3.0360075E5
33 33 6.061005E5
33 34 -3.0249975E5
34 33 -3.0360075E5
34 34 6.061005E5
34 35 -3.0249975E5
35 34 -3.0360075E5
35 35 6.061005E5
35 36 -3.0249975E5
36 35 -3.0360075E5
36 36 6.061005E5
36 37 -3.0249975E5
37 36 -3.0360075E5
37 37 6.061005E5
37 38 -3.0249975E5
38 37 -3.0360075E5
38 38 6.061005E5
38 39 -3.0249975E5
39 38 -3.0360075E5
39 39 6.061005E5
39 40 -3.0249975E5
40 39 -3.0360075E5
40 40 6.061005E5
40 41 -3.0249975E5
41 40 -3.0360075E5
41 41 6.061005E5
41 42 -3.0249975E5
42 41 -3.0360075E5
42 42 6.061005E5
42 43 -3.0249975E5
43 42 -3.0360075E5
43 43 6.061005E5
43 44 -3.0249975E5
44 43 -3.0360075E5
44 44 6.061005E5
44 45 -3.0249975E5
45 44 -3.0360075E5
45 45 6.061005E5
45 46 -3.0249975E5
46 45 -3.0360075E5
46 46 6.061005E5
46 47 -3.0249975E5
47 46 -3.0360075E5
47 47 6.061005E5
47 48 -3.0249975E5
48 47 -3.0360075E5
48 48 6.061005E5
48 49 -3.0249975E5
49 48 -3.0360075E5
49 49 6.061005E5
49 50 -3.0249975E5
50 49 -3.0360075E5
50 50 6.061005E5
50 51 -3.0249975E5
51 50 -3.0360075E5
51 51 6.061005E5
51 52 -3.0249975E5
52 51 -3.0360075E5
52 52 6.061005E5
52 53 -3.0249975E5
53 52 -3.0360075E5
53 53 6.061005E5
53 54 -3.0249975E5
54 53 -3.0360075E5
54 54 6.061005E5
54 55 -3.0249975E5
55 54 -3.0360075E5
55 55 6.061005E5
55 56 -3.0249975E5
56 55 -3.0360075E5
56 56 6.061005E5
56 57 -3.0249975E5
57 56 -3.0360075E5
57 57 6.061005E5
57 58 -3.0249975E5
58 57 -3.0360075E5
58 58 6.061005E5
58 59 -3.0249975E5
59 58 -3.0360075E5
59 59 6.061005E5
59 60 -3.0249975E5
60 59 -3.0360075E5
60 60 6.061005E5
60 61 -3.0249975E5
61 60 -3.0360075E5
61 61 6.061005E5
61 62 -3.0249975E5
62 61 -3.0360075E5
62 62 6.061005E5
62 63 -3.0249975E5
63 62 -3.0360075E5
63 63 6.061005E5
63 64 -3.0249975E5
64 63 -3.0360075E5
64 64 6.061005E5
64 65 -3.0249975E5
65 64 -3.0360075E5
65 65 6.061005E5
65 66 -3.0249975E5
66 65 -3.0360075E5
66 66 6.061005E5
66 67 -3.0249975E5
67 66 -3.0360075E5
67 67 6.061005E5
67 68 -3.0249975E5
68 67 -3.0360075E5
68 68 6.061005E5
68 69 -3.0249975E5
69 68 -3.0360075E5
69 69 6.061005E5
69 70 -3.0249975E5
70 69 -3.0360075E5
70 70 6.061005E5
70 71 -3.0249975E5
71 70 -3.0360075E5
71 71 6.061005E5
71 72 -3.0249975E5
72 71 -3.0360075E5
72 72 6.061005E5
72 73 -3.0249975E5
73 72 -3.0360075E5
73 73 6.061005E5
73 74 -3.0249975E5
74 73 -3.0360075E5
74 74 6.061005E5
74 75 -3.0249975E5
75 74 -3.0360075E5
75 75 6.061005E5
75 76 -3.0249975E5
76 75 -3.0360075E5
76 76 6.061005E5
76 77 -3.0249975E5
77 76 -3.0360075E5
77 77 6.061005E5
77 78 -3.0249975E5
78 77 -3.0360075E5
78 78 6.061005E5
78 79 -3.0249975E5
79 78 -3.0360075E5
79 79 6.061005E5
79 80 -3.0249975E5
80 79 -3.0360075E5
80 80 6.061005E5
80 81 -3.0249975E5
81 80 -3.0360075E5
81 81 6.061005E5
81 82 -3.0249975E5
82 81 -3.0360075E5
82 82 6.061005E5
82 83 -3.0249975E5
83 82 -3.0360075E5
83 83 6.061005E5
83 84 -3.0249975E5
84 83 -3.0360075E5
84 84 6.061005E5
84 85 -3.0249975E5
85 84 -3.0360075E5
85 85 6.061005E5
85 86 -3.0249975E5
86 85 -3.0360075E5
86 86 6.061005E5
86 87 -3.0249975E5
87 86 -3.0360075E5
87 87 6.061005E5
87 88 -3.0249975E5
88 87 -3.0360075E5
88 88 6.061005E5
88 89 -3.0249975E5
89 88 -3.0360075E5
89 89 6.061005E5
89 90 -3.0249975E5
90 89 -3.0360075E5
90 90 6.061005E5
90 91 -3.0249975E5
91 90 -3.0360075E5
91 91 6.061005E5
91 92 -3.0249975E5
92 91 -3.0360075E5
92 92 6.061005E5
92 93 -3.0249975E5
93 92 -3.0360075E5
93 93 6.061005E5
93 94 -3.0249975E5
94 93 -3.0360075E5
94 94 6.061005E5
94 95 -3.0249975E5
95 94 -3.0360075E5
95 95 6.061005E5
95 96 -3.0249975E5
96 95 -3.0360075E5
96 96 6.061005E5
96 97 -3.0249975E5
97 96 -3.0360075E5
97 97 6.061005E5
97 98 -3.0249975E5
98 97 -3.0360075E5
98 98 6.061005E5
98 99 -3.0249975E5
99 98 -3.0360075E5
99 99 6.061005E5
99 100 -3.0249975E5
100 99 -3.0360075E5
100 100 6.061005E5
100 101 -3.0249975E5
101 100 -3.0360075E5
101 101 6.061005E5
101 102 -3.0249975E5
102 101 -3.0360075E5
102 102 6.061005E5
102 103 -3.0249975E5
103 102 -3.0360075E5
103 103 6.061005E5
103 104 -3.0249975E5
104 103 -3.0360075E5
104 104 6.061005E5
104 105 -3.0249975E5
105 104 -3.0360075E5
105 105 6.061005E5
105 106 -3.0249975E5
106 105 -3.0360075E5
106 106 6.061005E5
106 107 -3.0249975E5
107 106 -3.0360075E5
107 107 6.061005E5
107 108 -3.0249975E5
108 107 -3.0360075E5
108 108 6.061005E5
108 109 -3.0249975E5
109 108 -3.0360075E5
109 109 6.061005E5
109 110 -3.0249975E5
110 109 -3.0360075E5
110 110 6.061005E5
110 111 -3.0249975E5
111 110 -3.0360075E5
111 111 6.061005E5
111 112 -3.0249975E5
112 111 -3.0360075E5
112 112 6.061005E5
112 113 -3.0249975E5
113 112 -3.0360075E5
113 113 6.061005E5
113 114 -3.0249975E5
114 113 -3.0360075E5
114 114 6.061005E5
114 115 -3.0249975E5
115 114 -3.0360075E5
115 115 6.061005E5
115 116 -3.0249975E5
116 115 -3.0360075E5
116 116 6.061005E5
116 117 -3.0249975E5
117 116 -3.0360075E5
117 117 6.061005E5
117 118 -3.0249975E5
118 117 -3.0360075E5
118 118 6.061005E5
118 119 -3.0249975E5
119 118 -3.0360075E5
119 119 6.061005E5
119 120 -3.0249975E5
120 119 -3.0360075E5
120 120 6.061005E5
120 121 -3.0249975E5
121 120 -3.0360075E5
121 121 6.061005E5
121 122 -3.0249975E5
122 121 -3.0360075E5
122 122 6.061005E5
122 123 -3.0249975E5
123 122 -3.0360075E5
123 123 6.061005E5
123 124 -3.0249975E5
124 123 -3.0360075E5
124 124 6.061005E5
124 125 -3.0249975E5
125 124 -3.0360075E5
125 125 6.061005E5
125 126 -3.0249975E5
126 125 -3.0360075E5
126 126 6.061005E5
126 127 -3.0249975E5
127 126 -3.0360075E5
127 127 6.061005E5
127 128 -3.0249975E5
128 127 -3.0360075E5
128 128 6.061005E5
128 129 -3.0249975E5
129 128 -3.0360075E5
129 129 6.061005E5
129 130 -3.0249975E5
130 129 -3.0360075E5
130 130 6.061005E5
130 131 -3.0249975E5
131 130 -3.0360075E5
131 131 6.061005E5
131 132 -3.0249975E5
132 131 -3.0360075E5
132 132 6.061005E5
132 133 -3.0249975E5
133 132 -3.0360075E5
133 133 6.061005E5
133 134 -3.0249975E5
134 133 -3.0360075E5
134 134 6.061005E5
134 135 -3.0249975E5
135 134 -3.0360075E5
135 135 6.061005E5
135 136 -3.0249975E5
136 135 -3.0360075E5
136 136 6.061005E5
136 137 -3.0249975E5
137 136 -3.0360075E5
137 137 6.061005E5
137 138 -3.0249975E5
138 137 -3.0360075E5
138 138 6.061005E5
138 139 -3.0249975E5
139 138 -3.0360075E5
139 139 6.061005E5
139 140 -3.0249975E5
140 139 -3.0360075E5
140 140 6.061005E5
140 141 -3.0249975E5
141 140 -3.0360075E5
141 141 6.061005E5
141 142 -3.0249975E5
142 141 -3.0360075E5
142 142 6.061005E5
142 143 -3.0249975E5
143 142 -3.0360075E5
143 143 6.061005E5
143 144 -3.0249975E5
144 143 -3.0360075E5
144 144 6.061005E5
144 145 -3.0249975E5
145 144 -3.0360075E5
145 145 6.061005E5
145 146 -3.0249975E5
146 145 -3.0360075E5
146 146 6.061005E5
146 147 -3.0249975E5
147 146 -3.0360075E5
147 147 6.061005E5
147 148 -3.0249975E5
148 147 -3.0360075E5
148 148 6.061005E5
148 149 -3.0249975E5
149 148 -3.0360075E5
149 149 6.061005E5
149 150 -3.0249975E5
150 149 -3.0360075E5
150 150 6.061005E5
150 151 -3.0249975E5
151 150 -3.0360075E5
151 151 6.061005E5
151 152 -3.0249975E5
152 151 -3.0360075E5
152 152 6.061005E5
152 153 -3.0249975E5
153 152 -3.0360075E5
153 153 6.061005E5
153 154 -3.0249975E5
154 153 -3.0360075E5
154 154 6.061005E5
154 155 -3.0249975E5
155 154 -3.0360075E5
155 155 6.061005E5
155 156 -3.0249975E5
156 155 -3.0360075E5
156 156 6.061005E5
156 157 -3.0249975E5
157 156 -3.0360075E5
157 157 6.061005E5
157 158 -3.0249975E5
158 157 -3.0360075E5
158 158 6.061005E5
158 159 -3.0249975E5
159 158 -3.0360075E5
159 159 6.061005E5
159 160 -3.0249975E5
160 159 -3.0360075E5
160 160 6.061005E5
160 161 -3.0249975E5
161 160 -3.0360075E5
161 161 6.061005E5
161 162 -3.0249975E5
162 161 -3.0360075E5
162 162 6.061005E5
162 163 -3.0249975E5
163 162 -3.0360075E5
163 163 6.061005E5
163 164 -3.0249975E5
164 163 -3.0360075E5
164 164 6.061005E5
164 165 -3.0249975E5
165 164 -3.0360075E5
165 165 6.061005E5
165 166 -3.0249975E5
166 165 -3.0360075E5
166 166 6.061005E5
166 167 -3.0249975E5
167 166 -3.0360075E5
167 167 6.061005E5
167 168 -3.0249975E5
168 167 -3.0360075E5
168 168 6.061005E5
168 169 -3.0249975E5
169 168 -3.0360075E5
169 169 6.061005E5
169 170 -3.0249975E5
170 169 -3.0360075E5
170 170 6.061005E5
170 171 -3.0249975E5
171 170 -3.0360075E5
171 171 6.061005E5
171 172 -3.0249975E5
172 171 -3.0360075E5
172 172 6.061005E5
172 173 -3.0249975E5
173 172 -3.0360075E5
173 173 6.061005E5
173 174 -3.0249975E5
174 173 -3.0360075E5
174 174 6.061005E5
174 175 -3.0249975E5
175 174 -3.0360075E5
175 175 6.061005E5
175 176 -3.0249975E5
176 175 -3.0360075E5
176 176 6.061005E5
176 177 -3.0249975E5
177 176 -3.0360075E5
177 177 6.061005E5
177 178 -3.0249975E5
178 177 -3.0360075E5
178 178 6.061005E5
178 179 -3.0249975E5
179 178 -3.0360075E5
179 179 6.061005E5
179 180 -3.0249975E5
180 179 -3.0360075E5
180 180 6.061005E5
180 181 -3.0249975E5
181 180 -3.0360075E5
181 181 6.061005E5
181 182 -3.0249975E5
182 181 -3.0360075E5
182 182 6.061005E5
182 183 -3.0249975E5
183 182 -3.0360075E5
183 183 6.061005E5
183 184 -3.0249975E5
184 183 -3.0360075E5
184 184 6.061005E5
184 185 -3.0249975E5
185 184 -3.0360075E5
185 185 6.061005E5
185 186 -3.0249975E5
186 185 -3.0360075E5
186 186 6.061005E5
186 187 -3.0249975E5
187 186 -3.0360075E5
187 187 6.061005E5
187 188 -3.0249975E5
188 187 -3.0360075E5
188 188 6.061005E5
188 189 -3.0249975E5
189 188 -3.0360075E5
189 189 6.061005E5
189 190 -3.0249975E5
190 189 -3.0360075E5
190 190 6.061005E5
190 191 -3.0249975E5
191 190 -3.0360075E5
191 191 6.061005E5
191 192 -3.0249975E5
192 191 -3.0360075E5
192 192 6.061005E5
192 193 -3.0249975E5
193 192 -3.0360075E5
193 193 6.061005E5
193 194 -3.0249975E5
194 193 -3.0360075E5
194 194 6.061005E5
194 195 -3.0249975E5
195 194 -3.0360075E5
195 195 6.061005E5
195 196 -3.0249975E5
196 195 -3.0360075E5
196 196 6.061005E5
196 197 -3.0249975E5
197 196 -3.0360075E5
197 197 6.061005E5
197 198 -3.0249975E5
198 197 -3.0360075E5
198 198 6.061005E5
198 199 -3.0249975E5
199 198 -3.0360075E5
199 199 6.061005E5
199 200 -3.0249975E5
200 199 -3.0360075E5
200 200 6.061005E5
200 201 -3.0249975E5
201 200 -3.0360075E5
201 201 6.061005E5
201 202 -3.0249975E5
202 201 -3.0360075E5
202 202 6.061005E5
202 203 -3.0249975E5
203 202 -3.0360075E5
203 203 6.061005E5
203 204 -3.0249975E5
204 203 -3.0360075E5
204 204 6.061005E5
204 205 -3.0249975E5
205 204 -3.0360075E5
205 205 6.061005E5
205 206 -3.0249975E5
206 205 -3.0360075E5
206 206 6.061005E5
206 207 -3.0249975E5
207 206 -3.0360075E5
207 207 6.061005E5
207 208 -3.0249975E5
208 207 -3.0360075E5
208 208 6.061005E5
208 209 -3.0249975E5
209 208 -3.0360075E5
209 209 6.061005E5
209 210 -3.0249975E5
210 209 -3.0360075E5
210 210 6.061005E5
210 211 -3.0249975E5
211 210 -3.0360075E5
211 211 6.061005E5
211 212 -3.0249975E5
212 211 -3.0360075E5
212 212 6.061005E5
212 213 -3.0249975E5
213 212 -3.0360075E5
213 213 6.061005E5
213 214 -3.0249975E5
214 213 -3.0360075E5
214 214 6.061005E5
214 215 -3.0249975E5
215 214 -3.0360075E5
215 215 6.061005E5
215 216 -3.0249975E5
216 215 -3.0360075E5
216 216 6.061005E5
216 217 -3.0249975E5
217 216 -3.0360075E5
217 217 6.061005E5
217 218 -3.0249975E5
218 217 -3.0360075E5
218 218 6.061005E5
218 219 -3.0249975E5
219 218 -3.0360075E5
219 219 6.061005E5
219 220 -3.0249975E5
220 219 -3.0360075E5
220 220 6.061005E5
220 221 -3.0249975E5
221 220 -3.0360075E5
221 221 6.061005E5
221 222 -3.0249975E5
222 221 -3.0360075E5
222 222 6.061005E5
222 223 -3.0249975E5
223 222 -3.0360075E5
223 223 6.061005E5
223 224 -3.0249975E5
224 223 -3.0360075E5
224 224 6.061005E5
224 225 -3.0249975E5
225 224 -3.0360075E5
225 225 6.061005E5
225 226 -3.0249975E5
226 225 -3.0360075E5
226 226 6.061005E5
226 227 -3.0249975E5
227 226 -3.0360075E5
227 227 6.061005E5
227 228 -3.0249975E5
228 227 -3.0360075E5
228 228 6.061005E5
228 229 -3.0249975E5
229 228 -3.0360075E5
229 229 6.061005E5
229 230 -3.0249975E5
230 229 -3.0360075E5
230 230 6.061005E5
230 231 -3.0249975E5
231 230 -3.0360075E5
231 231 6.061005E5
231 232 -3.0249975E5
232 231 -3.0360075E5
232 232 6.061005E5
232 233 -3.0249975E5
233 232 -3.0360075E5
233 233 6.061005E5
233 234 -3.0249975E5
234 233 -3.0360075E5
234 234 6.061005E5
234 235 -3.0249975E5
235 234 -3.0360075E5
235 235 6.061005E5
235 236 -3.0249975E5
236 235 -3.0360075E5
236 236 6.061005E5
236 237 -3.0249975E5
237 236 -3.0360075E5
237 237 6.061005E5
237 238 -3.0249975E5
238 237 -3.0360075E5
238 238 6.061005E5
238 239 -3.0249975E5
239 238 -3.0360075E5
239 239 6.061005E5
239 240 -3.0249975E5
240 239 -3.0360075E5
240 240 6.061005E5
240 241 -3.0249975E5
241 240 -3.0360075E5
241 241 6.061005E5
241 242 -3.0249975E5
242 241 -3.0360075E5
242 242 6.061005E5
242 243 -3.0249975E5
243 242 -3.0360075E5
243 243 6.061005E5
243 244 -3.0249975E5
244 243 -3.0360075E5
244 244 6.061005E5
244 245 -3.0249975E5
245 244 -3.0360075E5
245 245 6.061005E5
245 246 -3.0249975E5
246 245 -3.0360075E5
246 246 6.061005E5
246 247 -3.0249975E5
247 246 -3.0360075E5
247 247 6.061005E5
247 248 -3.0249975E5
248 247 -3.0360075E5
248 248 6.061005E5
248 249 -3.0249975E5
249 248 -3.0360075E5
249 249 6.061005E5
249 250 -3.0249975E5
250 249 -3.0360075E5
250 250 6.061005E5
250 251 -3.0249975E5
251 250 -3.0360075E5
251 251 6.061005E5
251 252 -3.0249975E5
252 251 -3.0360075E5
252 252 6.061005E5
252 253 -3.0249975E5
253 252 -3.0360075E5
253 253 6.061005E5
253 254 -3.0249975E5
254 253 -3.0360075E5
254 254 6.061005E5
254 255 -3.0249975E5
255 254 -3.0360075E5
255 255 6.061005E5
255 256 -3.0249975E5
256 255 -3.0360075E5
256 256 6.061005E5
256 257 -3.0249975E5
257 256 -3.0360075E5
257 257 6.061005E5
257 258 -3.0249975E5
258 257 -3.0360075E5
258 258 6.061005E5
258 259 -3.0249975E5
259 258 -3.0360075E5
259 259 6.061005E5
259 260 -3.0249975E5
260 259 -3.0360075E5
260 260 6.061005E5
260 261 -3.0249975E5
261 260 -3.0360075E5
261 261 6.061005E5
261 262 -3.0249975E5
262 261 -3.0360075E5
262 262 6.061005E5
262 263 -3.0249975E5
263 262 -3.0360075E5
263 263 6.061005E5
263 264 -3.0249975E5
264 263 -3.0360075E5
264 264 6.061005E5
264 265 -3.0249975E5
265 264 -3.0360075E5
265 265 6.061005E5
265 266 -3.0249975E5
266 265 -3.0360075E5
266 266 6.061005E5
266 267 -3.0249975E5
267 266 -3.0360075E5
267 267 6.061005E5
267 268 -3.0249975E5
268 267 -3.0360075E5
268 268 6.061005E5
268 269 -3.0249975E5
269 268 -3.0360075E5
269 269 6.061005E5
269 270 -3.0249975E5
270 269 -3.0360075E5
270 270 6.061005E5
270 271 -3.0249975E5
271 270 -3.0360075E5
271 271 6.061005E5
271 272 -3.0249975E5
272 271 -3.0360075E5
272 272 6.061005E5
272 273 -3.0249975E5
273 272 -3.0360075E5
273 273 6.061005E5
273 274 -3.0249975E5
274 273 -3.0360075E5
274 274 6.061005E5
274 275 -3.0249975E5
275 274 -3.0360075E5
275 275 6.061005E5
275 276 -3.0249975E5
276 275 -3.0360075E5
276 276 6.061005E5
276 277 -3.0249975E5
277 276 -3.0360075E5
277 277 6.061005E5
277 278 -3.0249975E5
278 277 -3.0360075E5
278 278 6.061005E5
278 279 -3.0249975E5
279 278 -3.0360075E5
279 279 6.061005E5
279 280 -3.0249975E5
280 279 -3.0360075E5
280 280 6.061005E5
280 281 -3.0249975E5
281 280 -3.0360075E5
281 281 6.061005E5
281 282 -3.0249975E5
282 281 -3.0360075E5
282 282 6.061005E5
282 283 -3.0249975E5
283 282 -3.0360075E5
283 283 6.061005E5
283 284 -3.0249975E5
284 283 -3.0360075E5
284 284 6.061005E5
284 285 -3.0249975E5
285 284 -3.0360075E5
285 285 6.061005E5
285 286 -3.0249975E5
286 285 -3.0360075E5
286 286 6.061005E5
286 287 -3.0249975E5
287 286 -3.0360075E5
287 287 6.061005E5
287 288 -3.0249975E5
288 287 -3.0360075E5
288 288 6.061005E5
288 289 -3.0249975E5
289 288 -3.0360075E5
289 289 6.061005E5
289 290 -3.0249975E5
290 289 -3.0360075E5
290 290 6.061005E5
290 291 -3.0249975E5
291 290 -3.0360075E5
291 291 6.061005E5
291 292 -3.0249975E5
292 291 -3.0360075E5
292 292 6.061005E5
292 293 -3.0249975E5
293 292 -3.0360075E5
293 293 6.061005E5
293 294 -3.0249975E5
294 293 -3.0360075E5
294 294 6.061005E5
294 295 -3.0249975E5
295 294 -3.0360075E5
295 295 6.061005E5
295 296 -3.0249975E5
296 295 -3.0360075E5
296 296 6.061005E5
296 297 -3.0249975E5
297 296 -3.0360075E5
297 297 6.061005E5
297 298 -3.0249975E5
298 297 -3.0360075E5
298 298 6.061005E5
298 299 -3.0249975E5
299 298 -3.0360075E5
299 299 6.061005E5
299 300 -3.0249975E5
300 299 -3.0360075E5
300 300 6.061005E5
300 301 -3.0249975E5
301 300 -3.0360075E5
301 301 6.061005E5
301 302 -3.0249975E5
302 301 -3.0360075E5
302 302 6.061005E5
302 303 -3.0249975E5
303 302 -3.0360075E5
303 303 6.061005E5
303 304 -3.0249975E5
304 303 -3.0360075E5
304 304 6.061005E5
304 305 -3.0249975E5
305 304 -3.0360075E5
305 305 6.061005E5
305 306 -3.0249975E5
306 305 -3.0360075E5
306 306 6.061005E5
306 307 -3.0249975E5
307 306 -3.0360075E5
307 307 6.061005E5
307 308 -3.0249975E5
308 307 -3.0360075E5
308 308 6.061005E5
308 309 -3.0249975E5
309 308 -3.0360075E5
309 309 6.061005E5
309 310 -3.0249975E5
310 309 -3.0360075E5
310 310 6.061005E5
310 311 -3.0249975E5
311 310 -3.0360075E5
311 311 6.061005E5
311 312 -3.0249975E5
312 311 -3.0360075E5
312 312 6.061005E5
312 313 -3.0249975E5
313 312 -3.0360075E5
313 313 6.061005E5
313 314 -3.0249975E5
314 313 -3.0360075E5
314 314 6.061005E5
314 315 -3.0249975E5
315 314 -3.0360075E5
315 315 6.061005E5
315 316 -3.0249975E5
316 315 -3.0360075E5
316 316 6.061005E5
316 317 -3.0249975E5
317 316 -3.0360075E5
317 317 6.061005E5
317 318 -3.0249975E5
318 317 -3.0360075E5
318 318 6.061005E5
318 319 -3.0249975E5
319 318 -3.0360075E5
319 319 6.061005E5
319 320 -3.0249975E5
320 319 -3.0360075E5
320 320 6.061005E5
320 321 -3.0249975E5
321 320 -3.0360075E5
321 321 6.061005E5
321 322 -3.0249975E5
322 321 -3.0360075E5
322 322 6.061005E5
322 323 -3.0249975E5
323 322 -3.0360075E5
323 323 6.061005E5
323 324 -3.0249975E5
324 323 -3.0360075E5
324 324 6.061005E5
324 325 -3.0249975E5
325 324 -3.0360075E5
325 325 6.061005E5
325 326 -3.0249975E5
326 325 -3.0360075E5
326 326 6.061005E5
326 327 -3.0249975E5
327 326 -3.0360075E5
327 327 6.061005E5
327 328 -3.0249975E5
328 327 -3.0360075E5
328 328 6.061005E5
328 329 -3.0249975E5
329 328 -3.0360075E5
329 329 6.061005E5
329 330 -3.0249975E5
330 329 -3.0360075E5
330 330 6.061005E5
330 331 -3.0249975E5
331 330 -3.0360075E5
331 331 6.061005E5
331 332 -3.0249975E5
332 331 -3.0360075E5
332 332 6.061005E5
332 333 -3.0249975E5
333 332 -3.0360075E5
333 333 6.061005E5
333 334 -3.0249975E5
334 333 -3.0360075E5
334 334 6.061005E5
334 335 -3.0249975E5
335 334 -3.0360075E5
335 335 6.061005E5
335 336 -3.0249975E5
336 335 -3.0360075E5
336 336 6.061005E5
336 337 -3.0249975E5
337 336 -3.0360075E5
337 337 6.061005E5
337 338 -3.0249975E5
338 337 -3.0360075E5
338 338 6.061005E5
338 339 -3.0249975E5
339 338 -3.0360075E5
339 339 6.061005E5
339 340 -3.0249975E5
340 339 -3.0360075E5
340 340 6.061005E5
340 341 -3.0249975E5
341 340 -3.0360075E5
341 341 6.061005E5
341 342 -3.0249975E5
342 341 -3.0360075E5
342 342 6.061005E5
342 343 -3.0249975E5
343 342 -3.0360075E5
343 343 6.061005E5
343 344 -3.0249975E5
344 343 -3.0360075E5
344 344 6.061005E5
344 345 -3.0249975E5
345 344 -3.0360075E5
345 345 6.061005E5
345 346 -3.0249975E5
346 345 -3.0360075E5
346 346 6.061005E5
346 347 -3.0249975E5
347 346 -3.0360075E5
347 347 6.061005E5
347 348 -3.0249975E5
348 347 -3.0360075E5
348 348 6.061005E5
348 349 -3.0249975E5
349 348 -3.0360075E5
349 349 6.061005E5
349 350 -3.0249975E5
350 349 -3.0360075E5
350 350 6.061005E5
350 351 -3.0249975E5
351 350 -3.0360075E5
351 351 6.061005E5
351 352 -3.0249975E5
352 351 -3.0360075E5
352 352 6.061005E5
352 353 -3.0249975E5
353 352 -3.0360075E5
353 353 6.061005E5
353 354 -3.0249975E5
354 353 -3.0360075E5
354 354 6.061005E5
354 355 -3.0249975E5
355 354 -3.0360075E5
355 355 6.061005E5
355 356 -3.0249975E5
356 355 -3.0360075E5
356 356 6.061005E5
356 357 -3.0249975E5
357 356 -3.0360075E5
357 357 6.061005E5
357 358 -3.0249975E5
358 357 -3.0360075E5
358 358 6.061005E5
358 359 -3.0249975E5
359 358 -3.0360075E5
359 359 6.061005E5
359 360 -3.0249975E5
360 359 -3.0360075E5
360 360 6.061005E5
360 361 -3.0249975E5
361 360 -3.0360075E5
361 361 6.061005E5
361 362 -3.0249975E5
362 361 -3.0360075E5
362 362 6.061005E5
362 363 -3.0249975E5
363 362 -3.0360075E5
363 363 6.061005E5
363 364 -3.0249975E5
364 363 -3.0360075E5
364 364 6.061005E5
364 365 -3.0249975E5
365 364 -3.0360075E5
365 365 6.061005E5
365 366 -3.0249975E5
366 365 -3.0360075E5
366 366 6.061005E5
366 367 -3.0249975E5
367 366 -3.0360075E5
367 367 6.061005E5
367 368 -3.0249975E5
368 367 -3.0360075E5
368 368 6.061005E5
368 369 -3.0249975E5
369 368 -3.0360075E5
369 369 6.061005E5
369 370 -3.0249975E5
370 369 -3.0360075E5
370 370 6.061005E5
370 371 -3.0249975E5
371 370 -3.0360075E5
371 371 6.061005E5
371 372 -3.0249975E5
372 371 -3.0360075E5
372 372 6.061005E5
372 373 -3.0249975E5
373 372 -3.0360075E5
373 373 6.061005E5
373 374 -3.0249975E5
374 373 -3.0360075E5
374 374 6.061005E5
374 375 -3.0249975E5
375 374 -3.0360075E5
375 375 6.061005E5
375 376 -3.0249975E5
376 375 -3.0360075E5
376 376 6.061005E5
376 377 -3.0249975E5
377 376 -3.0360075E5
377 377 6.061005E5
377 378 -3.0249975E5
378 377 -3.0360075E5
378 378 6.061005E5
378 379 -3.0249975E5
379 378 -3.0360075E5
379 379 6.061005E5
379 380 -3.0249975E5
380 379 -3.0360075E5
380 380 6.061005E5
380 381 -3.0249975E5
381 380 -3.0360075E5
381 381 6.061005E5
381 382 -3.0249975E5
382 381 -3.0360075E5
382 382 6.061005E5
382 383 -3.0249975E5
383 382 -3.0360075E5
383 383 6.061005E5
383 384 -3.0249975E5
384 383 -3.0360075E5
384 384 6.061005E5
384 385 -3.0249975E5
385 384 -3.0360075E5
385 385 6.061005E5
385 386 -3.0249975E5
386 385 -3.0360075E5
386 386 6.061005E5
386 387 -3.0249975E5
387 386 -3.0360075E5
387 387 6.061005E5
387 388 -3.0249975E5
388 387 -3.0360075E5
388 388 6.061005E5
388 389 -3.0249975E5
389 388 -3.0360075E5
389 389 6.061005E5
389 390 -3.0249975E5
390 389 -3.0360075E5
390 390 6.061005E5
390 391 -3.0249975E5
391 390 -3.0360075E5
391 391 6.061005E5
391 392 -3.0249975E5
392 391 -3.0360075E5
392 392 6.061005E5
392 393 -3.0249975E5
393 392 -3.0360075E5
393 393 6.061005E5
393 394 -3.0249975E5
394 393 -3.0360075E5
394 394 6.061005E5
394 395 -3.0249975E5
395 394 -3.0360075E5
395 395 6.061005E5
395 396 -3.0249975E5
396 395 -3.0360075E5
396 396 6.061005E5
396 397 -3.0249975E5
397 396 -3.0360075E5
397 397 6.061005E5
397 398 -3.0249975E5
398 397 -3.0360075E5
398 398 6.061005E5
398 399 -3.0249975E5
399 398 -3.0360075E5
399 399 6.061005E5
399 400 -3.0249975E5
400 399 -3.0360075E5
400 400 6.061005E5
400 401 -3.0249975E5
401 400 -3.0360075E5
401 401 6.061005E5
401 402 -3.0249975E5
402 401 -3.0360075E5
402 402 6.061005E5
402 403 -3.0249975E5
403 402 -3.0360075E5
403 403 6.061005E5
403 404 -3.0249975E5
404 403 -3.0360075E5
404 404 6.061005E5
404 405 -3.0249975E5
405 404 -3.0360075E5
405 405 6.061005E5
405 406 -3.0249975E5
406 405 -3.0360075E5
406 406 6.061005E5
406 407 -3.0249975E5
407 406 -3.0360075E5
407 407 6.061005E5
407 408 -3.0249975E5
408 407 -3.0360075E5
408 408 6.061005E5
408 409 -3.0249975E5
409 408 -3.0360075E5
409 409 6.061005E5
409 410 -3.0249975E5
410 409 -3.0360075E5
410 410 6.061005E5
410 411 -3.0249975E5
411 410 -3.0360075E5
411 411 6.061005E5
411 412 -3.0249975E5
412 411 -3.0360075E5
412 412 6.061005E5
412 413 -3.0249975E5
413 412 -3.0360075E5
413 413 6.061005E5
413 414 -3.0249975E5
414 413 -3.0360075E5
414 414 6.061005E5
414 415 -3.0249975E5
415 414 -3.0360075E5
415 415 6.061005E5
415 416 -3.0249975E5
416 415 -3.0360075E5
416 416 6.061005E5
416 417 -3.0249975E5
417 416 -3.0360075E5
417 417 6.061005E5
417 418 -3.0249975E5
418 417 -3.0360075E5
418 418 6.061005E5
418 419 -3.0249975E5
419 418 -3.0360075E5
419 419 6.061005E5
419 420 -3.0249975E5
420 419 -3.0360075E5
420 420 6.061005E5
420 421 -3.0249975E5
421 420 -3.0360075E5
421 421 6.061005E5
421 422 -3.0249975E5
422 421 -3.0360075E5
422 422 6.061005E5
422 423 -3.0249975E5
423 422 -3.0360075E5
423 423 6.061005E5
423 424 -3.0249975E5
424 423 -3.0360075E5
424 424 6.061005E5
424 425 -3.0249975E5
425 424 -3.0360075E5
425 425 6.061005E5
425 426 -3.0249975E5
426 425 -3.0360075E5
426 426 6.061005E5
426 427 -3.0249975E5
427 426 -3.0360075E5
427 427 6.061005E5
427 428 -3.0249975E5
428 427 -3.0360075E5
428 428 6.061005E5
428 429 -3.0249975E5
429 428 -3.0360075E5
429 429 6.061005E5
429 430 -3.0249975E5
430 429 -3.0360075E5
430 430 6.061005E5
430 431 -3.0249975E5
431 430 -3.0360075E5
431 431 6.061005E5
431 432 -3.0249975E5
432 431 -3.0360075E5
432 432 6.061005E5
432 433 -3.0249975E5
433 432 -3.0360075E5
433 433 6.061005E5
433 434 -3.0249975E5
434 433 -3.0360075E5
434 434 6.061005E5
434 435 -3.0249975E5
435 434 -3.0360075E5
435 435 6.061005E5
435 436 -3.0249975E5
436 435 -3.0360075E5
436 436 6.061005E5
436 437 -3.0249975E5
437 436 -3.0360075E5
437 437 6.061005E5
437 438 -3.0249975E5
438 437 -3.0360075E5
438 438 6.061005E5
438 439 -3.0249975E5
439 438 -3.0360075E5
439 439 6.061005E5
439 440 -3.0249975E5
440 439 -3.0360075E5
440 440 6.061005E5
440 441 -3.0249975E5
441 440 -3.0360075E5
441 441 6.061005E5
441 442 -3.0249975E5
442 441 -3.0360075E5
442 442 6.061005E5
442 443 -3.0249975E5
443 442 -3.0360075E5
443 443 6.061005E5
443 444 -3.0249975E5
444 443 -3.0360075E5
444 444 6.061005E5
444 445 -3.0249975E5
445 444 -3.0360075E5
445 445 6.061005E5
445 446 -3.0249975E5
446 445 -3.0360075E5
446 446 6.061005E5
446 447 -3.0249975E5
447 446 -3.0360075E5
447 447 6.061005E5
447 448 -3.0249975E5
448 447 -3.0360075E5
448 448 6.061005E5
448 449 -3.0249975E5
449 448 -3.0360075E5
449 449 6.061005E5
449 450 -3.0249975E5
450 449 -3.0360075E5
450 450 6.061005E5
450 451 -3.0249975E5
451 450 -3.0360075E5
451 451 6.061005E5
451 452 -3.0249975E5
452 451 -3.0360075E5
452 452 6.061005E5
452 453 -3.0249975E5
453 452 -3.0360075E5
453 453 6.061005E5
453 454 -3.0249975E5
454 453 -3.0360075E5
454 454 6.061005E5
454 455 -3.0249975E5
455 454 -3.0360075E5
455 455 6.061005E5
455 456 -3.0249975E5
456 455 -3.0360075E5
456 456 6.061005E5
456 457 -3.0249975E5
457 456 -3.0360075E5
457 457 6.061005E5
457 458 -3.0249975E5
458 457 -3.0360075E5
458 458 6.061005E5
458 459 -3.0249975E5
459 458 -3.0360075E5
459 459 6.061005E5
459 460 -3.0249975E5
460 459 -3.0360075E5
460 460 6.061005E5
460 461 -3.0249975E5
461 460 -3.0360075E5
461 461 6.061005E5
461 462 -3.0249975E5
462 461 -3.0360075E5
462 462 6.061005E5
462 463 -3.0249975E5
463 462 -3.0360075E5
463 463 6.061005E5
463 464 -3.0249975E5
464 463 -3.0360075E5
464 464 6.061005E5
464 465 -3.0249975E5
465 464 -3.0360075E5
465 465 6.061005E5
465 466 -3.0249975E5
466 465 -3.0360075E5
466 466 6.061005E5
466 467 -3.0249975E5
467 466 -3.0360075E5
467 467 6.061005E5
467 468 -3.0249975E5
468 467 -3.0360075E5
468 468 6.061005E5
468 469 -3.0249975E5
469 468 -3.0360075E5
469 469 6.061005E5
469 470 -3.0249975E5
470 469 -3.0360075E5
470 470 6.061005E5
470 471 -3.0249975E5
471 470 -3.0360075E5
471 471 6.061005E5
471 472 -3.0249975E5
472 471 -3.0360075E5
472 472 6.061005E5
472 473 -3.0249975E5
473 472 -3.0360075E5
473 473 6.061005E5
473 474 -3.0249975E5
474 473 -3.0360075E5
474 474 6.061005E5
474 475 -3.0249975E5
475 474 -3.0360075E5
475 475 6.061005E5
475 476 -3.0249975E5
476 475 -3.0360075E5
476 476 6.061005E5
476 477 -3.0249975E5
477 476 -3.0360075E5
477 477 6.061005E5
477 478 -3.0249975E5
478 477 -3.0360075E5
478 478 6.061005E5
478 479 -3.0249975E5
479 478 -3.0360075E5
479 479 6.061005E5
479 480 -3.0249975E5
480 479 -3.0360075E5
480 480 6.061005E5
480 481 -3.0249975E5
481 480 -3.0360075E5
481 481 6.061005E5
481 482 -3.0249975E5
482 481 -3.0360075E5
482 482 6.061005E5
482 483 -3.0249975E5
483 482 -3.0360075E5
483 483 6.061005E5
483 484 -3.0249975E5
484 483 -3.0360075E5
484 484 6.061005E5
484 485 -3.0249975E5
485 484 -3.0360075E5
485 485 6.061005E5
485 486 -3.0249975E5
486 485 -3.0360075E5
486 486 6.061005E5
486 487 -3.0249975E5
487 486 -3.0360075E5
487 487 6.061005E5
487 488 -3.0249975E5
488 487 -3.0360075E5
488 488 6.061005E5
488 489 -3.0249975E5
489 488 -3.0360075E5
489 489 6.061005E5
489 490 -3.0249975E5
490 489 -3.0360075E5
490 490 6.061005E5
490 491 -3.0249975E5
491 490 -3.0360075E5
491 491 6.061005E5
491 492 -3.0249975E5
492 491 -3.0360075E5
492 492 6.061005E5
492 493 -3.0249975E5
493 492 -3.0360075E5
493 493 6.061005E5
493 494 -3.0249975E5
494 493 -3.0360075E5
494 494 6.061005E5
494 495 -3.0249975E5
495 494 -3.0360075E5
495 495 6.061005E5
495 496 -3.0249975E5
496 495 -3.0360075E5
496 496 6.061005E5
496 497 -3.0249975E5
497 496 -3.0360075E5
497 497 6.061005E5
497 498 -3.0249975E5
498 497 -3.0360075E5
498 498 6.061005E5
498 499 -3.0249975E5
499 498 -3.0360075E5
499 499 6.061005E5
499 500 -3.0249975E5
500 499 -3.0360075E5
500 500 6.061005E5
500 501 -3.0249975E5
501 500 -3.0360075E5
501 501 6.061005E5
501 502 -3.0249975E5
502 501 -3.0360075E5
502 502 6.061005E5
502 503 -3.0249975E5
503 502 -3.0360075E5
503 503 6.061005E5
503 504 -3.0249975E5
504 503 -3.0360075E5
504 504 6.061005E5
504 505 -3.0249975E5
505 504 -3.0360075E5
505 505 6.061005E5
505 506 -3.0249975E5
506 505 -3.0360075E5
506 506 6.061005E5
506 507 -3.0249975E5
507 506 -3.0360075E5
507 507 6.061005E5
507 508 -3.0249975E5
508 507 -3.0360075E5
508 508 6.061005E5
508 509 -3.0249975E5
509 508 -3.0360075E5
509 509 6.061005E5
509 510 -3.0249975E5
510 509 -3.0360075E5
510 510 6.061005E5
510 511 -3.0249975E5
511 510 -3.0360075E5
511 511 6.061005E5
511 512 -3.0249975E5
512 511 -3.0360075E5
512 512 6.061005E5
512 513 -3.0249975E5
513 512 -3.0360075E5
513 513 6.061005E5
513 514 -3.0249975E5
514 513 -3.0360075E5
514 514 6.061005E5
514 515 -3.0249975E5
515 514 -3.0360075E5
515 515 6.061005E5
515 516 -3.0249975E5
516 515 -3.0360075E5
516 516 6.061005E5
516 517 -3.0249975E5
517 516 -3.0360075E5
517 517 6.061005E5
517 518 -3.0249975E5
518 517 -3.0360075E5
518 518 6.061005E5
518 519 -3.0249975E5
519 518 -3.0360075E5
519 519 6.061005E5
519 520 -3.0249975E5
520 519 -3.0360075E5
520 520 6.061005E5
520 521 -3.0249975E5
521 520 -3.0360075E5
521 521 6.061005E5
521 522 -3.0249975E5
522 521 -3.0360075E5
522 522 6.061005E5
522 523 -3.0249975E5
523 522 -3.0360075E5
523 523 6.061005E5
523 524 -3.0249975E5
524 523 -3.0360075E5
524 524 6.061005E5
524 525 -3.0249975E5
525 524 -3.0360075E5
525 525 6.061005E5
525 526 -3.0249975E5
526 525 -3.0360075E5
526 526 6.061005E5
526 527 -3.0249975E5
527 526 -3.0360075E5
527 527 6.061005E5
527 528 -3.0249975E5
528 527 -3.0360075E5
528 528 6.061005E5
528 529 -3.0249975E5
529 528 -3.0360075E5
529 529 6.061005E5
529 530 -3.0249975E5
530 529 -3.0360075E5
530 530 6.061005E5
530 531 -3.0249975E5
531 530 -3.0360075E5
531 531 6.061005E5
531 532 -3.0249975E5
532 531 -3.0360075E5
532 532 6.061005E5
532 533 -3.0249975E5
533 532 -3.0360075E5
533 533 6.061005E5
533 534 -3.0249975E5
534 533 -3.0360075E5
534 534 6.061005E5
534 535 -3.0249975E5
535 534 -3.0360075E5
535 535 6.061005E5
535 536 -3.0249975E5
536 535 -3.0360075E5
536 536 6.061005E5
536 537 -3.0249975E5
537 536 -3.0360075E5
537 537 6.061005E5
537 538 -3.0249975E5
538 537 -3.0360075E5
538 538 6.061005E5
538 539 -3.0249975E5
539 538 -3.0360075E5
539 539 6.061005E5
539 540 -3.0249975E5
540 539 -3.0360075E5
540 540 6.061005E5
540 541 -3.0249975E5
541 540 -3.0360075E5
541 541 6.061005E5
541 542 -3.0249975E5
542 541 -3.0360075E5
542 542 6.061005E5
542 543 -3.0249975E5
543 542 -3.0360075E5
543 543 6.061005E5
543 544 -3.0249975E5
544 543 -3.0360075E5
544 544 6.061005E5
544 545 -3.0249975E5
545 544 -3.0360075E5
545 545 6.061005E5
545 546 -3.0249975E5
546 545 -3.0360075E5
546 546 6.061005E5
546 547 -3.0249975E5
547 546 -3.0360075E5
547 547 6.061005E5
547 548 -3.0249975E5
548 547 -3.0360075E5
548 548 6.061005E5
548 549 -3.0249975E5
549 548 -3.0360075E5
549 549 6.061005E5
549 550 -3.0249975E5
550 549 -3.0360075E5
550 550 6.061005E5
550 551 -3.0249975E5
551 550 -3.0360075E5
551 551 6.061005E5
551 552 -3.0249975E5
552 551 -3.0360075E5
552 552 6.061005E5
552 553 -3.0249975E5
553 552 -3.0360075E5
553 553 6.061005E5
553 554 -3.0249975E5
554 553 -3.0360075E5
554 554 6.061005E5
554 555 -3.0249975E5
555 554 -3.0360075E5
555 555 6.061005E5
555 556 -3.0249975E5
556 555 -3.0360075E5
556 556 6.061005E5
556 557 -3.0249975E5
557 556 -3.0360075E5
557 557 6.061005E5
557 558 -3.0249975E5
558 557 -3.0360075E5
558 558 6.061005E5
558 559 -3.0249975E5
559 558 -3.0360075E5
559 559 6.061005E5
559 560 -3.0249975E5
560 559 -3.0360075E5
560 560 6.061005E5
560 561 -3.0249975E5
561 560 -3.0360075E5
561 561 6.061005E5
561 562 -3.0249975E5
562 561 -3.0360075E5
562 562 6.061005E5
562 563 -3.0249975E5
563 562 -3.0360075E5
563 563 6.061005E5
563 564 -3.0249975E5
564 563 -3.0360075E5
564 564 6.061005E5
564 565 -3.0249975E5
565 564 -3.0360075E5
565 565 6.061005E5
565 566 -3.0249975E5
566 565 -3.0360075E5
566 566 6.061005E5
566 567 -3.0249975E5
567 566 -3.0360075E5
567 567 6.061005E5
567 568 -3.0249975E5
568 567 -3.0360075E5
568 568 6.061005E5
568 569 -3.0249975E5
569 568 -3.0360075E5
569 569 6.061005E5
569 570 -3.0249975E5
570 569 -3.0360075E5
570 570 6.061005E5
570 571 -3.0249975E5
571 570 -3.0360075E5
571 571 6.061005E5
571 572 -3.0249975E5
572 571 -3.0360075E5
572 572 6.061005E5
572 573 -3.0249975E5
573 572 -3.0360075E5
573 573 6.061005E5
573 574 -3.0249975E5
574 573 -3.0360075E5
574 574 6.061005E5
574 575 -3.0249975E5
575 574 -3.0360075E5
575 575 6.061005E5
575 576 -3.0249975E5
576 575 -3.0360075E5
576 576 6.061005E5
576 577 -3.0249975E5
577 576 -3.0360075E5
577 577 6.061005E5
577 578 -3.0249975E5
578 577 -3.0360075E5
578 578 6.061005E5
578 579 -3.0249975E5
579 578 -3.0360075E5
579 579 6.061005E5
579 580 -3.0249975E5
580 579 -3.0360075E5
580 580 6.061005E5
580 581 -3.0249975E5
581 580 -3.0360075E5
581 581 6.061005E5
581 582 -3.0249975E5
582 581 -3.0360075E5
582 582 6.061005E5
582 583 -3.0249975E5
583 582 -3.0360075E5
583 583 6.061005E5
583 584 -3.0249975E5
584 583 -3.0360075E5
584 584 6.061005E5
584 585 -3.0249975E5
585 584 -3.0360075E5
585 585 6.061005E5
585 586 -3.0249975E5
586 585 -3.0360075E5
586 586 6.061005E5
586 587 -3.0249975E5
587 586 -3.0360075E5
587 587 6.061005E5
587 588 -3.0249975E5
588 587 -3.0360075E5
588 588 6.061005E5
588 589 -3.0249975E5
589 588 -3.0360075E5
589 589 6.061005E5
589 590 -3.0249975E5
590 589 -3.0360075E5
590 590 6.061005E5
590 591 -3.0249975E5
591 590 -3.0360075E5
591 591 6.061005E5
591 592 -3.0249975E5
592 591 -3.0360075E5
592 592 6.061005E5
592 593 -3.0249975E5
593 592 -3.0360075E5
593 593 6.061005E5
593 594 -3.0249975E5
594 593 -3.0360075E5
594 594 6.061005E5
594 595 -3.0249975E5
595 594 -3.0360075E5
595 595 6.061005E5
595 596 -3.0249975E5
596 595 -3.0360075E5
596 596 6.061005E5
596 597 -3.0249975E5
597 596 -3.0360075E5
597 597 6.061005E5
597 598 -3.0249975E5
598 597 -3.0360075E5
598 598 6.061005E5
598 599 -3.0249975E5
599 598 -3.0360075E5
599 599 6.061005E5
599 600 -3.0249975E5
600 599 -3.0360075E5
600 600 6.061005E5
600 601 -3.0249975E5
601 600 -3.0360075E5
601 601 6.061005E5
601 602 -3.0249975E5
602 601 -3.0360075E5
602 602 6.061005E5
602 603 -3.0249975E5
603 602 -3.0360075E5
603 603 6.061005E5
603 604 -3.0249975E5
604 603 -3.0360075E5
604 604 6.061005E5
604 605 -3.0249975E5
605 604 -3.0360075E5
605 605 6.061005E5
605 606 -3.0249975E5
606 605 -3.0360075E5
606 606 6.061005E5
606 607 -3.0249975E5
607 606 -3.0360075E5
607 607 6.061005E5
607 608 -3.0249975E5
608 607 -3.0360075E5
608 608 6.061005E5
608 609 -3.0249975E5
609 608 -3.0360075E5
609 609 6.061005E5
609 610 -3.0249975E5
610 609 -3.0360075E5
610 610 6.061005E5
610 611 -3.0249975E5
611 610 -3.0360075E5
611 611 6.061005E5
611 612 -3.0249975E5
612 611 -3.0360075E5
612 612 6.061005E5
612 613 -3.0249975E5
613 612 -3.0360075E5
613 613 6.061005E5
613 614 -3.0249975E5
614 613 -3.0360075E5
614 614 6.061005E5
614 615 -3.0249975E5
615 614 -3.0360075E5
615 615 6.061005E5
615 616 -3.0249975E5
616 615 -3.0360075E5
616 616 6.061005E5
616 617 -3.0249975E5
617 616 -3.0360075E5
617 617 6.061005E5
617 618 -3.0249975E5
618 617 -3.0360075E5
618 618 6.061005E5
618 619 -3.0249975E5
619 618 -3.0360075E5
619 619 6.061005E5
619 620 -3.0249975E5
620 619 -3.0360075E5
620 620 6.061005E5
620 621 -3.0249975E5
621 620 -3.0360075E5
621 621 6.061005E5
621 622 -3.0249975E5
622 621 -3.0360075E5
622 622 6.061005E5
622 623 -3.0249975E5
623 622 -3.0360075E5
623 623 6.061005E5
623 624 -3.0249975E5
624 623 -3.0360075E5
624 624 6.061005E5
624 625 -3.0249975E5
625 624 -3.0360075E5
625 625 6.061005E5
625 626 -3.0249975E5
626 625 -3.0360075E5
626 626 6.061005E5
626 627 -3.0249975E5
627 626 -3.0360075E5
627 627 6.061005E5
627 628 -3.0249975E5
628 627 -3.0360075E5
628 628 6.061005E5
628 629 -3.0249975E5
629 628 -3.0360075E5
629 629 6.061005E5
629 630 -3.0249975E5
630 629 -3.0360075E5
630 630 6.061005E5
630 631 -3.0249975E5
631 630 -3.0360075E5
631 631 6.061005E5
631 632 -3.0249975E5
632 631 -3.0360075E5
632 632 6.061005E5
632 633 -3.0249975E5
633 632 -3.0360075E5
633 633 6.061005E5
633 634 -3.0249975E5
634 633 -3.0360075E5
634 634 6.061005E5
634 635 -3.0249975E5
635 634 -3.0360075E5
635 635 6.061005E5
635 636 -3.0249975E5
636 635 -3.0360075E5
636 636 6.061005E5
636 637 -3.0249975E5
637 636 -3.0360075E5
637 637 6.061005E5
637 638 -3.0249975E5
638 637 -3.0360075E5
638 638 6.061005E5
638 639 -3.0249975E5
639 638 -3.0360075E5
639 639 6.061005E5
639 640 -3.0249975E5
640 639 -3.0360075E5
640 640 6.061005E5
640 641 -3.0249975E5
641 640 -3.0360075E5
641 641 6.061005E5
641 642 -3.0249975E5
642 641 -3.0360075E5
642 642 6.061005E5
642 643 -3.0249975E5
643 642 -3.0360075E5
643 643 6.061005E5
643 644 -3.0249975E5
644 643 -3.0360075E5
644 644 6.061005E5
644 645 -3.0249975E5
645 644 -3.0360075E5
645 645 6.061005E5
645 646 -3.0249975E5
646 645 -3.0360075E5
646 646 6.061005E5
646 647 -3.0249975E5
647 646 -3.0360075E5
647 647 6.061005E5
647 648 -3.0249975E5
648 647 -3.0360075E5
648 648 6.061005E5
648 649 -3.0249975E5
649 648 -3.0360075E5
649 649 6.061005E5
649 650 -3.0249975E5
650 649 -3.0360075E5
650 650 6.061005E5
650 651 -3.0249975E5
651 650 -3.0360075E5
651 651 6.061005E5
651 652 -3.0249975E5
652 651 -3.0360075E5
652 652 6.061005E5
652 653 -3.0249975E5
653 652 -3.0360075E5
653 653 6.061005E5
653 654 -3.0249975E5
654 653 -3.0360075E5
654 654 6.061005E5
654 655 -3.0249975E5
655 654 -3.0360075E5
655 655 6.061005E5
655 656 -3.0249975E5
656 655 -3.0360075E5
656 656 6.061005E5
656 657 -3.0249975E5
657 656 -3.0360075E5
657 657 6.061005E5
657 658 -3.0249975E5
658 657 -3.0360075E5
658 658 6.061005E5
658 659 -3.0249975E5
659 658 -3.0360075E5
659 659 6.061005E5
659 660 -3.0249975E5
660 659 -3.0360075E5
660 660 6.061005E5
660 661 -3.0249975E5
661 660 -3.0360075E5
661 661 6.061005E5
661 662 -3.0249975E5
662 661 -3.0360075E5
662 662 6.061005E5
662 663 -3.0249975E5
663 662 -3.0360075E5
663 663 6.061005E5
663 664 -3.0249975E5
664 663 -3.0360075E5
664 664 6.061005E5
664 665 -3.0249975E5
665 664 -3.0360075E5
665 665 6.061005E5
665 666 -3.0249975E5
666 665 -3.0360075E5
666 666 6.061005E5
666 667 -3.0249975E5
667 666 -3.0360075E5
667 667 6.061005E5
667 668 -3.0249975E5
668 667 -3.0360075E5
668 668 6.061005E5
668 669 -3.0249975E5
669 668 -3.0360075E5
669 669 6.061005E5
669 670 -3.0249975E5
670 669 -3.0360075E5
670 670 6.061005E5
670 671 -3.0249975E5
671 670 -3.0360075E5
671 671 6.061005E5
671 672 -3.0249975E5
672 671 -3.0360075E5
672 672 6.061005E5
672 673 -3.0249975E5
673 672 -3.0360075E5
673 673 6.061005E5
673 674 -3.0249975E5
674 673 -3.0360075E5
674 674 6.061005E5
674 675 -3.0249975E5
675 674 -3.0360075E5
675 675 6.061005E5
675 676 -3.0249975E5
676 675 -3.0360075E5
676 676 6.061005E5
676 677 -3.0249975E5
677 676 -3.0360075E5
677 677 6.061005E5
677 678 -3.0249975E5
678 677 -3.0360075E5
678 678 6.061005E5
678 679 -3.0249975E5
679 678 -3.0360075E5
679 679 6.061005E5
679 680 -3.0249975E5
680 679 -3.0360075E5
680 680 6.061005E5
680 681 -3.0249975E5
681 680 -3.0360075E5
681 681 6.061005E5
681 682 -3.0249975E5
682 681 -3.0360075E5
682 682 6.061005E5
682 683 -3.0249975E5
683 682 -3.0360075E5
683 683 6.061005E5
683 684 -3.0249975E5
684 683 -3.0360075E5
684 684 6.061005E5
684 685 -3.0249975E5
685 684 -3.0360075E5
685 685 6.061005E5
685 686 -3.0249975E5
686 685 -3.0360075E5
686 686 6.061005E5
686 687 -3.0249975E5
687 686 -3.0360075E5
687 687 6.061005E5
687 688 -3.0249975E5
688 687 -3.0360075E5
688 688 6.061005E5
688 689 -3.0249975E5
689 688 -3.0360075E5
689 689 6.061005E5
689 690 -3.0249975E5
690 689 -3.0360075E5
690 690 6.061005E5
690 691 -3.0249975E5
691 690 -3.0360075E5
691 691 6.061005E5
691 692 -3.0249975E5
692 691 -3.0360075E5
692 692 6.061005E5
692 693 -3.0249975E5
693 692 -3.0360075E5
693 693 6.061005E5
693 694 -3.0249975E5
694 693 -3.0360075E5
694 694 6.061005E5
694 695 -3.0249975E5
695 694 -3.0360075E5
695 695 6.061005E5
695 696 -3.0249975E5
696 695 -3.0360075E5
696 696 6.061005E5
696 697 -3.0249975E5
697 696 -3.0360075E5
697 697 6.061005E5
697 698 -3.0249975E5
698 697 -3.0360075E5
698 698 6.061005E5
698 699 -3.0249975E5
699 698 -3.0360075E5
699 699 6.061005E5
699 700 -3.0249975E5
700 699 -3.0360075E5
700 700 6.061005E5
700 701 -3.0249975E5
701 700 -3.0360075E5
701 701 6.061005E5
701 702 -3.0249975E5
702 701 -3.0360075E5
702 702 6.061005E5
702 703 -3.0249975E5
703 702 -3.0360075E5
703 703 6.061005E5
703 704 -3.0249975E5
704 703 -3.0360075E5
704 704 6.061005E5
704 705 -3.0249975E5
705 704 -3.0360075E5
705 705 6.061005E5
705 706 -3.0249975E5
706 705 -3.0360075E5
706 706 6.061005E5
706 707 -3.0249975E5
707 706 -3.0360075E5
707 707 6.061005E5
707 708 -3.0249975E5
708 707 -3.0360075E5
708 708 6.061005E5
708 709 -3.0249975E5
709 708 -3.0360075E5
709 709 6.061005E5
709 710 -3.0249975E5
710 709 -3.0360075E5
710 710 6.061005E5
710 711 -3.0249975E5
711 710 -3.0360075E5
711 711 6.061005E5
711 712 -3.0249975E5
712 711 -3.0360075E5
712 712 6.061005E5
712 713 -3.0249975E5
713 712 -3.0360075E5
713 713 6.061005E5
713 714 -3.0249975E5
714 713 -3.0360075E5
714 714 6.061005E5
714 715 -3.0249975E5
715 714 -3.0360075E5
715 715 6.061005E5
715 716 -3.0249975E5
716 715 -3.0360075E5
716 716 6.061005E5
716 717 -3.0249975E5
717 716 -3.0360075E5
717 717 6.061005E5
717 718 -3.0249975E5
718 717 -3.0360075E5
718 718 6.061005E5
718 719 -3.0249975E5
719 718 -3.0360075E5
719 719 6.061005E5
719 720 -3.0249975E5
720 719 -3.0360075E5
720 720 6.061005E5
720 721 -3.0249975E5
721 720 -3.0360075E5
721 721 6.061005E5
721 722 -3.0249975E5
722 721 -3.0360075E5
722 722 6.061005E5
722 723 -3.0249975E5
723 722 -3.0360075E5
723 723 6.061005E5
723 724 -3.0249975E5
724 723 -3.0360075E5
724 724 6.061005E5
724 725 -3.0249975E5
725 724 -3.0360075E5
725 725 6.061005E5
725 726 -3.0249975E5
726 725 -3.0360075E5
726 726 6.061005E5
726 727 -3.0249975E5
727 726 -3.0360075E5
727 727 6.061005E5
727 728 -3.0249975E5
728 727 -3.0360075E5
728 728 6.061005E5
728 729 -3.0249975E5
729 728 -3.0360075E5
729 729 6.061005E5
729 730 -3.0249975E5
730 729 -3.0360075E5
730 730 6.061005E5
730 731 -3.0249975E5
731 730 -3.0360075E5
731 731 6.061005E5
731 732 -3.0249975E5
732 731 -3.0360075E5
732 732 6.061005E5
732 733 -3.0249975E5
733 732 -3.0360075E5
733 733 6.061005E5
733 734 -3.0249975E5
734 733 -3.0360075E5
734 734 6.061005E5
734 735 -3.0249975E5
735 734 -3.0360075E5
735 735 6.061005E5
735 736 -3.0249975E5
736 735 -3.0360075E5
736 736 6.061005E5
736 737 -3.0249975E5
737 736 -3.0360075E5
737 737 6.061005E5
737 738 -3.0249975E5
738 737 -3.0360075E5
738 738 6.061005E5
738 739 -3.0249975E5
739 738 -3.0360075E5
739 739 6.061005E5
739 740 -3.0249975E5
740 739 -3.0360075E5
740 740 6.061005E5
740 741 -3.0249975E5
741 740 -3.0360075E5
741 741 6.061005E5
741 742 -3.0249975E5
742 741 -3.0360075E5
742 742 6.061005E5
742 743 -3.0249975E5
743 742 -3.0360075E5
743 743 6.061005E5
743 744 -3.0249975E5
744 743 -3.0360075E5
744 744 6.061005E5
744 745 -3.0249975E5
745 744 -3.0360075E5
745 745 6.061005E5
745 746 -3.0249975E5
746 745 -3.0360075E5
746 746 6.061005E5
746 747 -3.0249975E5
747 746 -3.0360075E5
747 747 6.061005E5
747 748 -3.0249975E5
748 747 -3.0360075E5
748 748 6.061005E5
748 749 -3.0249975E5
749 748 -3.0360075E5
749 749 6.061005E5
749 750 -3.0249975E5
750 749 -3.0360075E5
750 750 6.061005E5
750 751 -3.0249975E5
751 750 -3.0360075E5
751 751 6.061005E5
751 752 -3.0249975E5
752 751 -3.0360075E5
752 752 6.061005E5
752 753 -3.0249975E5
753 752 -3.0360075E5
753 753 6.061005E5
753 754 -3.0249975E5
754 753 -3.0360075E5
754 754 6.061005E5
754 755 -3.0249975E5
755 754 -3.0360075E5
755 755 6.061005E5
755 756 -3.0249975E5
756 755 -3.0360075E5
756 756 6.061005E5
756 757 -3.0249975E5
757 756 -3.0360075E5
757 757 6.061005E5
757 758 -3.0249975E5
758 757 -3.0360075E5
758 758 6.061005E5
758 759 -3.0249975E5
759 758 -3.0360075E5
759 759 6.061005E5
759 760 -3.0249975E5
760 759 -3.0360075E5
760 760 6.061005E5
760 761 -3.0249975E5
761 760 -3.0360075E5
761 761 6.061005E5
761 762 -3.0249975E5
762 761 -3.0360075E5
762 762 6.061005E5
762 763 -3.0249975E5
763 762 -3.0360075E5
763 763 6.061005E5
763 764 -3.0249975E5
764 763 -3.0360075E5
764 764 6.061005E5
764 765 -3.0249975E5
765 764 -3.0360075E5
765 765 6.061005E5
765 766 -3.0249975E5
766 765 -3.0360075E5
766 766 6.061005E5
766 767 -3.0249975E5
767 766 -3.0360075E5
767 767 6.061005E5
767 768 -3.0249975E5
768 767 -3.0360075E5
768 768 6.061005E5
768 769 -3.0249975E5
769 768 -3.0360075E5
769 769 6.061005E5
769 770 -3.0249975E5
770 769 -3.0360075E5
770 770 6.061005E5
770 771 -3.0249975E5
771 770 -3.0360075E5
771 771 6.061005E5
771 772 -3.0249975E5
772 771 -3.0360075E5
772 772 6.061005E5
772 773 -3.0249975E5
773 772 -3.0360075E5
773 773 6.061005E5
773 774 -3.0249975E5
774 773 -3.0360075E5
774 774 6.061005E5
774 775 -3.0249975E5
775 774 -3.0360075E5
775 775 6.061005E5
775 776 -3.0249975E5
776 775 -3.0360075E5
776 776 6.061005E5
776 777 -3.0249975E5
777 776 -3.0360075E5
777 777 6.061005E5
777 778 -3.0249975E5
778 777 -3.0360075E5
778 778 6.061005E5
778 779 -3.0249975E5
779 778 -3.0360075E5
779 779 6.061005E5
779 780 -3.0249975E5
780 779 -3.0360075E5
780 780 6.061005E5
780 781 -3.0249975E5
781 780 -3.0360075E5
781 781 6.061005E5
781 782 -3.0249975E5
782 781 -3.0360075E5
782 782 6.061005E5
782 783 -3.0249975E5
783 782 -3.0360075E5
783 783 6.061005E5
783 784 -3.0249975E5
784 783 -3.0360075E5
784 784 6.061005E5
784 785 -3.0249975E5
785 784 -3.0360075E5
785 785 6.061005E5
785 786 -3.0249975E5
786 785 -3.0360075E5
786 786 6.061005E5
786 787 -3.0249975E5
787 786 -3.0360075E5
787 787 6.061005E5
787 788 -3.0249975E5
788 787 -3.0360075E5
788 788 6.061005E5
788 789 -3.0249975E5
789 788 -3.0360075E5
789 789 6.061005E5
789 790 -3.0249975E5
790 789 -3.0360075E5
790 790 6.061005E5
790 791 -3.0249975E5
791 790 -3.0360075E5
791 791 6.061005E5
791 792 -3.0249975E5
792 791 -3.0360075E5
792 792 6.061005E5
792 793 -3.0249975E5
793 792 -3.0360075E5
793 793 6.061005E5
793 794 -3.0249975E5
794 793 -3.0360075E5
794 794 6.061005E5
794 795 -3.0249975E5
795 794 -3.0360075E5
795 795 6.061005E5
795 796 -3.0249975E5
796 795 -3.0360075E5
796 796 6.061005E5
796 797 -3.0249975E5
797 796 -3.0360075E5
797 797 6.061005E5
797 798 -3.0249975E5
798 797 -3.0360075E5
798 798 6.061005E5
798 799 -3.0249975E5
799 798 -3.0360075E5
799 799 6.061005E5
799 800 -3.0249975E5
800 799 -3.0360075E5
800 800 6.061005E5
800 801 -3.0249975E5
801 800 -3.0360075E5
801 801 6.061005E5
801 802 -3.0249975E5
802 801 -3.0360075E5
802 802 6.061005E5
802 803 -3.0249975E5
803 802 -3.0360075E5
803 803 6.061005E5
803 804 -3.0249975E5
804 803 -3.0360075E5
804 804 6.061005E5
804 805 -3.0249975E5
805 804 -3.0360075E5
805 805 6.061005E5
805 806 -3.0249975E5
806 805 -3.0360075E5
806 806 6.061005E5
806 807 -3.0249975E5
807 806 -3.0360075E5
807 807 6.061005E5
807 808 -3.0249975E5
808 807 -3.0360075E5
808 808 6.061005E5
808 809 -3.0249975E5
809 808 -3.0360075E5
809 809 6.061005E5
809 810 -3.0249975E5
810 809 -3.0360075E5
810 810 6.061005E5
810 811 -3.0249975E5
811 810 -3.0360075E5
811 811 6.061005E5
811 812 -3.0249975E5
812 811 -3.0360075E5
812 812 6.061005E5
812 813 -3.0249975E5
813 812 -3.0360075E5
813 813 6.061005E5
813 814 -3.0249975E5
814 813 -3.0360075E5
814 814 6.061005E5
814 815 -3.0249975E5
815 814 -3.0360075E5
815 815 6.061005E5
815 816 -3.0249975E5
816 815 -3.0360075E5
816 816 6.061005E5
816 817 -3.0249975E5
817 816 -3.0360075E5
817 817 6.061005E5
817 818 -3.0249975E5
818 817 -3.0360075E5
818 818 6.061005E5
818 819 -3.0249975E5
819 818 -3.0360075E5
819 819 6.061005E5
819 820 -3.0249975E5
820 819 -3.0360075E5
820 820 6.061005E5
820 821 -3.0249975E5
821 820 -3.0360075E5
821 821 6.061005E5
821 822 -3.0249975E5
822 821 -3.0360075E5
822 822 6.061005E5
822 823 -3.0249975E5
823 822 -3.0360075E5
823 823 6.061005E5
823 824 -3.0249975E5
824 823 -3.0360075E5
824 824 6.061005E5
824 825 -3.0249975E5
825 824 -3.0360075E5
825 825 6.061005E5
825 826 -3.0249975E5
826 825 -3.0360075E5
826 826 6.061005E5
826 827 -3.0249975E5
827 826 -3.0360075E5
827 827 6.061005E5
827 828 -3.0249975E5
828 827 -3.0360075E5
828 828 6.061005E5
828 829 -3.0249975E5
829 828 -3.0360075E5
829 829 6.061005E5
829 830 -3.0249975E5
830 829 -3.0360075E5
830 830 6.061005E5
830 831 -3.0249975E5
831 830 -3.0360075E5
831 831 6.061005E5
831 832 -3.0249975E5
832 831 -3.0360075E5
832 832 6.061005E5
832 833 -3.0249975E5
833 832 -3.0360075E5
833 833 6.061005E5
833 834 -3.0249975E5
834 833 -3.0360075E5
834 834 6.061005E5
834 835 -3.0249975E5
835 834 -3.0360075E5
835 835 6.061005E5
835 836 -3.0249975E5
836 835 -3.0360075E5
836 836 6.061005E5
836 837 -3.0249975E5
837 836 -3.0360075E5
837 837 6.061005E5
837 838 -3.0249975E5
838 837 -3.0360075E5
838 838 6.061005E5
838 839 -3.0249975E5
839 838 -3.0360075E5
839 839 6.061005E5
839 840 -3.0249975E5
840 839 -3.0360075E5
840 840 6.061005E5
840 841 -3.0249975E5
841 840 -3.0360075E5
841 841 6.061005E5
841 842 -3.0249975E5
842 841 -3.0360075E5
842 842 6.061005E5
842 843 -3.0249975E5
843 842 -3.0360075E5
843 843 6.061005E5
843 844 -3.0249975E5
844 843 -3.0360075E5
844 844 6.061005E5
844 845 -3.0249975E5
845 844 -3.0360075E5
845 845 6.061005E5
845 846 -3.0249975E5
846 845 -3.0360075E5
846 846 6.061005E5
846 847 -3.0249975E5
847 846 -3.0360075E5
847 847 6.061005E5
847 848 -3.0249975E5
848 847 -3.0360075E5
848 848 6.061005E5
848 849 -3.0249975E5
849 848 -3.0360075E5
849 849 6.061005E5
849 850 -3.0249975E5
850 849 -3.0360075E5
850 850 6.061005E5
850 851 -3.0249975E5
851 850 -3.0360075E5
851 851 6.061005E5
851 852 -3.0249975E5
852 851 -3.0360075E5
852 852 6.061005E5
852 853 -3.0249975E5
853 852 -3.0360075E5
853 853 6.061005E5
853 854 -3.0249975E5
854 853 -3.0360075E5
854 854 6.061005E5
854 855 -3.0249975E5
855 854 -3.0360075E5
855 855 6.061005E5
855 856 -3.0249975E5
856 855 -3.0360075E5
856 856 6.061005E5
856 857 -3.0249975E5
857 856 -3.0360075E5
857 857 6.061005E5
857 858 -3.0249975E5
858 857 -3.0360075E5
858 858 6.061005E5
858 859 -3.0249975E5
859 858 -3.0360075E5
859 859 6.061005E5
859 860 -3.0249975E5
860 859 -3.0360075E5
860 860 6.061005E5
860 861 -3.0249975E5
861 860 -3.0360075E5
861 861 6.061005E5
861 862 -3.0249975E5
862 861 -3.0360075E5
862 862 6.061005E5
862 863 -3.0249975E5
863 862 -3.0360075E5
863 863 6.061005E5
863 864 -3.0249975E5
864 863 -3.0360075E5
864 864 6.061005E5
864 865 -3.0249975E5
865 864 -3.0360075E5
865 865 6.061005E5
865 866 -3.0249975E5
866 865 -3.0360075E5
866 866 6.061005E5
866 867 -3.0249975E5
867 866 -3.0360075E5
867 867 6.061005E5
867 868 -3.0249975E5
868 867 -3.0360075E5
868 868 6.061005E5
868 869 -3.0249975E5
869 868 -3.0360075E5
869 869 6.061005E5
869 870 -3.0249975E5
870 869 -3.0360075E5
870 870 6.061005E5
870 871 -3.0249975E5
871 870 -3.0360075E5
871 871 6.061005E5
871 872 -3.0249975E5
872 871 -3.0360075E5
872 872 6.061005E5
872 873 -3.0249975E5
873 872 -3.0360075E5
873 873 6.061005E5
873 874 -3.0249975E5
874 873 -3.0360075E5
874 874 6.061005E5
874 875 -3.0249975E5
875 874 -3.0360075E5
875 875 6.061005E5
875 876 -3.0249975E5
876 875 -3.0360075E5
876 876 6.061005E5
876 877 -3.0249975E5
877 876 -3.0360075E5
877 877 6.061005E5
877 878 -3.0249975E5
878 877 -3.0360075E5
878 878 6.061005E5
878 879 -3.0249975E5
879 878 -3.0360075E5
879 879 6.061005E5
879 880 -3.0249975E5
880 879 -3.0360075E5
880 880 6.061005E5
880 881 -3.0249975E5
881 880 -3.0360075E5
881 881 6.061005E5
881 882 -3.0249975E5
882 881 -3.0360075E5
882 882 6.061005E5
882 883 -3.0249975E5
883 882 -3.0360075E5
883 883 6.061005E5
883 884 -3.0249975E5
884 883 -3.0360075E5
884 884 6.061005E5
884 885 -3.0249975E5
885 884 -3.0360075E5
885 885 6.061005E5
885 886 -3.0249975E5
886 885 -3.0360075E5
886 886 6.061005E5
886 887 -3.0249975E5
887 886 -3.0360075E5
887 887 6.061005E5
887 888 -3.0249975E5
888 887 -3.0360075E5
888 888 6.061005E5
888 889 -3.0249975E5
889 888 -3.0360075E5
889 889 6.061005E5
889 890 -3.0249975E5
890 889 -3.0360075E5
890 890 6.061005E5
890 891 -3.0249975E5
891 890 -3.0360075E5
891 891 6.061005E5
891 892 -3.0249975E5
892 891 -3.0360075E5
892 892 6.061005E5
892 893 -3.0249975E5
893 892 -3.0360075E5
893 893 6.061005E5
893 894 -3.0249975E5
894 893 -3.0360075E5
894 894 6.061005E5
894 895 -3.0249975E5
895 894 -3.0360075E5
895 895 6.061005E5
895 896 -3.0249975E5
896 895 -3.0360075E5
896 896 6.061005E5
896 897 -3.0249975E5
897 896 -3.0360075E5
897 897 6.061005E5
897 898 -3.0249975E5
898 897 -3.0360075E5
898 898 6.061005E5
898 899 -3.0249975E5
899 898 -3.0360075E5
899 899 6.061005E5
899 900 -3.0249975E5
900 899 -3.0360075E5
900 900 6.061005E5
900 901 -3.0249975E5
901 900 -3.0360075E5
901 901 6.061005E5
901 902 -3.0249975E5
902 901 -3.0360075E5
902 902 6.061005E5
902 903 -3.0249975E5
903 902 -3.0360075E5
903 903 6.061005E5
903 904 -3.0249975E5
904 903 -3.0360075E5
904 904 6.061005E5
904 905 -3.0249975E5
905 904 -3.0360075E5
905 905 6.061005E5
905 906 -3.0249975E5
906 905 -3.0360075E5
906 906 6.061005E5
906 907 -3.0249975E5
907 906 -3.0360075E5
907 907 6.061005E5
907 908 -3.0249975E5
908 907 -3.0360075E5
908 908 6.061005E5
908 909 -3.0249975E5
909 908 -3.0360075E5
909 909 6.061005E5
909 910 -3.0249975E5
910 909 -3.0360075E5
910 910 6.061005E5
910 911 -3.0249975E5
911 910 -3.0360075E5
911 911 6.061005E5
911 912 -3.0249975E5
912 911 -3.0360075E5
912 912 6.061005E5
912 913 -3.0249975E5
913 912 -3.0360075E5
913 913 6.061005E5
913 914 -3.0249975E5
914 913 -3.0360075E5
914 914 6.061005E5
914 915 -3.0249975E5
915 914 -3.0360075E5
915 915 6.061005E5
915 916 -3.0249975E5
916 915 -3.0360075E5
916 916 6.061005E5
916 917 -3.0249975E5
917 916 -3.0360075E5
917 917 6.061005E5
917 918 -3.0249975E5
918 917 -3.0360075E5
918 918 6.061005E5
918 919 -3.0249975E5
919 918 -3.0360075E5
919 919 6.061005E5
919 920 -3.0249975E5
920 919 -3.0360075E5
920 920 6.061005E5
920 921 -3.0249975E5
921 920 -3.0360075E5
921 921 6.061005E5
921 922 -3.0249975E5
922 921 -3.0360075E5
922 922 6.061005E5
922 923 -3.0249975E5
923 922 -3.0360075E5
923 923 6.061005E5
923 924 -3.0249975E5
924 923 -3.0360075E5
924 924 6.061005E5
924 925 -3.0249975E5
925 924 -3.0360075E5
925 925 6.061005E5
925 926 -3.0249975E5
926 925 -3.0360075E5
926 926 6.061005E5
926 927 -3.0249975E5
927 926 -3.0360075E5
927 927 6.061005E5
927 928 -3.0249975E5
928 927 -3.0360075E5
928 928 6.061005E5
928 929 -3.0249975E5
929 928 -3.0360075E5
929 929 6.061005E5
929 930 -3.0249975E5
930 929 -3.0360075E5
930 930 6.061005E5
930 931 -3.0249975E5
931 930 -3.0360075E5
931 931 6.061005E5
931 932 -3.0249975E5
932 931 -3.0360075E5
932 932 6.061005E5
932 933 -3.0249975E5
933 932 -3.0360075E5
933 933 6.061005E5
933 934 -3.0249975E5
934 933 -3.0360075E5
934 934 6.061005E5
934 935 -3.0249975E5
935 934 -3.0360075E5
935 935 6.061005E5
935 936 -3.0249975E5
936 935 -3.0360075E5
936 936 6.061005E5
936 937 -3.0249975E5
937 936 -3.0360075E5
937 937 6.061005E5
937 938 -3.0249975E5
938 937 -3.0360075E5
938 938 6.061005E5
938 939 -3.0249975E5
939 938 -3.0360075E5
939 939 6.061005E5
939 940 -3.0249975E5
940 939 -3.0360075E5
940 940 6.061005E5
940 941 -3.0249975E5
941 940 -3.0360075E5
941 941 6.061005E5
941 942 -3.0249975E5
942 941 -3.0360075E5
942 942 6.061005E5
942 943 -3.0249975E5
943 942 -3.0360075E5
943 943 6.061005E5
943 944 -3.0249975E5
944 943 -3.0360075E5
944 944 6.061005E5
944 945 -3.0249975E5
945 944 -3.0360075E5
945 945 6.061005E5
945 946 -3.0249975E5
946 945 -3.0360075E5
946 946 6.061005E5
946 947 -3.0249975E5
947 946 -3.0360075E5
947 947 6.061005E5
947 948 -3.0249975E5
948 947 -3.0360075E5
948 948 6.061005E5
948 949 -3.0249975E5
949 948 -3.0360075E5
949 949 6.061005E5
949 950 -3.0249975E5
950 949 -3.0360075E5
950 950 6.061005E5
950 951 -3.0249975E5
951 950 -3.0360075E5
951 951 6.061005E5
951 952 -3.0249975E5
952 951 -3.0360075E5
952 952 6.061005E5
952 953 -3.0249975E5
953 952 -3.0360075E5
953 953 6.061005E5
953 954 -3.0249975E5
954 953 -3.0360075E5
954 954 6.061005E5
954 955 -3.0249975E5
955 954 -3.0360075E5
955 955 6.061005E5
955 956 -3.0249975E5
956 955 -3.0360075E5
956 956 6.061005E5
956 957 -3.0249975E5
957 956 -3.0360075E5
957 957 6.061005E5
957 958 -3.0249975E5
958 957 -3.0360075E5
958 958 6.061005E5
958 959 -3.0249975E5
959 958 -3.0360075E5
959 959 6.061005E5
959 960 -3.0249975E5
960 959 -3.0360075E5
960 960 6.061005E5
960 961 -3.0249975E5
961 960 -3.0360075E5
961 961 6.061005E5
961 962 -3.0249975E5
962 961 -3.0360075E5
962 962 6.061005E5
962 963 -3.0249975E5
963 962 -3.0360075E5
963 963 6.061005E5
963 964 -3.0249975E5
964 963 -3.0360075E5
964 964 6.061005E5
964 965 -3.0249975E5
965 964 -3.0360075E5
965 965 6.061005E5
965 966 -3.0249975E5
966 965 -3.0360075E5
966 966 6.061005E5
966 967 -3.0249975E5
967 966 -3.0360075E5
967 967 6.061005E5
967 968 -3.0249975E5
968 967 -3.0360075E5
968 968 6.061005E5
968 969 -3.0249975E5
969 968 -3.0360075E5
969 969 6.061005E5
969 970 -3.0249975E5
970 969 -3.0360075E5
970 970 6.061005E5
970 971 -3.0249975E5
971 970 -3.0360075E5
971 971 6.061005E5
971 972 -3.0249975E5
972 971 -3.0360075E5
972 972 6.061005E5
972 973 -3.0249975E5
973 972 -3.0360075E5
973 973 6.061005E5
973 974 -3.0249975E5
974 973 -3.0360075E5
974 974 6.061005E5
974 975 -3.0249975E5
975 974 -3.0360075E5
975 975 6.061005E5
975 976 -3.0249975E5
976 975 -3.0360075E5
976 976 6.061005E5
976 977 -3.0249975E5
977 976 -3.0360075E5
977 977 6.061005E5
977 978 -3.0249975E5
978 977 -3.0360075E5
978 978 6.061005E5
978 979 -3.0249975E5
979 978 -3.0360075E5
979 979 6.061005E5
979 980 -3.0249975E5
980 979 -3.0360075E5
980 980 6.061005E5
980 981 -3.0249975E5
981 980 -3.0360075E5
981 981 6.061005E5
981 982 -3.0249975E5
982 981 -3.0360075E5
982 982 6.061005E5
982 983 -3.0249975E5
983 982 -3.0360075E5
983 983 6.061005E5
983 984 -3.0249975E5
984 983 -3.0360075E5
984 984 6.061005E5
984 985 -3.0249975E5
985 984 -3.0360075E5
985 985 6.061005E5
985 986 -3.0249975E5
986 985 -3.0360075E5
986 986 6.061005E5
986 987 -3.0249975E5
987 986 -3.0360075E5
987 987 6.061005E5
987 988 -3.0249975E5
988 987 -3.0360075E5
988 988 6.061005E5
988 989 -3.0249975E5
989 988 -3.0360075E5
989 989 6.061005E5
989 990 -3.0249975E5
990 989 -3.0360075E5
990 990 6.061005E5
990 991 -3.0249975E5
991 990 -3.0360075E5
991 991 6.061005E5
991 992 -3.0249975E5
992 991 -3.0360075E5
992 992 6.061005E5
992 993 -3.0249975E5
993 992 -3.0360075E5
993 993 6.061005E5
993 994 -3.0249975E5
994 993 -3.0360075E5
994 994 6.061005E5
994 995 -3.0249975E5
995 994 -3.0360075E5
995 995 6.061005E5
995 996 -3.0249975E5
996 995 -3.0360075E5
996 996 6.061005E5
996 997 -3.0249975E5
997 996 -3.0360075E5
997 997 6.061005E5
997 998 -3.0249975E5
998 997 -3.0360075E5
998 998 6.061005E5
998 999 -3.0249975E5
999 998 -3.0360075E5
999 999 6.061005E5
999 1000 -3.0249975E5
1000 999 -3.0360075E5
1000 1000 6.061005E5
1000 1001 -3.0249975E5
1001 1000 -3.0360075E5
1001 1001 6.061005E5
1001 1002 -3.0249975E5
1002 1001 -3.0360075E5
1002 1002 6.061005E5
1002 1003 -3.0249975E5
1003 1002 -3.0360075E5
1003 1003 6.061005E5
1003 1004 -3.0249975E5
1004 1003 -3.0360075E5
1004 1004 6.061005E5
1004 1005 -3.0249975E5
1005 1004 -3.0360075E5
1005 1005 6.061005E5
1005 1006 -3.0249975E5
1006 1005 -3.0360075E5
1006 1006 6.061005E5
1006 1007 -3.0249975E5
1007 1006 -3.0360075E5
1007 1007 6.061005E5
1007 1008 -3.0249975E5
1008 1007 -3.0360075E5
1008 1008 6.061005E5
1008 1009 -3.0249975E5
1009 1008 -3.0360075E5
1009 1009 6.061005E5
1009 1010 -3.0249975E5
1010 1009 -3.0360075E5
1010 1010 6.061005E5
1010 1011 -3.0249975E5
1011 1010 -3.0360075E5
1011 1011 6.061005E5
1011 1012 -3.0249975E5
1012 1011 -3.0360075E5
1012 1012 6.061005E5
1012 1013 -3.0249975E5
1013 1012 -3.0360075E5
1013 1013 6.061005E5
1013 1014 -3.0249975E5
1014 1013 -3.0360075E5
1014 1014 6.061005E5
1014 1015 -3.0249975E5
1015 1014 -3.0360075E5
1015 1015 6.061005E5
1015 1016 -3.0249975E5
1016 1015 -3.0360075E5
1016 1016 6.061005E5
1016 1017 -3.0249975E5
1017 1016 -3.0360075E5
1017 1017 6.061005E5
1017 1018 -3.0249975E5
1018 1017 -3.0360075E5
1018 1018 6.061005E5
1018 1019 -3.0249975E5
1019 1018 -3.0360075E5
1019 1019 6.061005E5
1019 1020 -3.0249975E5
1020 1019 -3.0360075E5
1020 1020 6.061005E5
1020 1021 -3.0249975E5
1021 1020 -3.0360075E5
1021 1021 6.061005E5
1021 1022 -3.0249975E5
1022 1021 -3.0360075E5
1022 1022 6.061005E5
1022 1023 -3.0249975E5
1023 1022 -3.0360075E5
1023 1023 6.061005E5
1023 1024 -3.0249975E5
1024 1023 -3.0360075E5
1024 1024 6.061005E5
1024 1025 -3.0249975E5
1025 1024 -3.0360075E5
1025 1025 6.061005E5
1025 1026 -3.0249975E5
1026 1025 -3.0360075E5
1026 1026 6.061005E5
1026 1027 -3.0249975E5
1027 1026 -3.0360075E5
1027 1027 6.061005E5
1027 1028 -3.0249975E5
1028 1027 -3.0360075E5
1028 1028 6.061005E5
1028 1029 -3.0249975E5
1029 1028 -3.0360075E5
1029 1029 6.061005E5
1029 1030 -3.0249975E5
1030 1029 -3.0360075E5
1030 1030 6.061005E5
1030 1031 -3.0249975E5
1031 1030 -3.0360075E5
1031 1031 6.061005E5
1031 1032 -3.0249975E5
1032 1031 -3.0360075E5
1032 1032 6.061005E5
1032 1033 -3.0249975E5
1033 1032 -3.0360075E5
1033 1033 6.061005E5
1033 1034 -3.0249975E5
1034 1033 -3.0360075E5
1034 1034 6.061005E5
1034 1035 -3.0249975E5
1035 1034 -3.0360075E5
1035 1035 6.061005E5
1035 1036 -3.0249975E5
1036 1035 -3.0360075E5
1036 1036 6.061005E5
1036 1037 -3.0249975E5
1037 1036 -3.0360075E5
1037 1037 6.061005E5
1037 1038 -3.0249975E5
1038 1037 -3.0360075E5
1038 1038 6.061005E5
1038 1039 -3.0249975E5
1039 1038 -3.0360075E5
1039 1039 6.061005E5
1039 1040 -3.0249975E5
1040 1039 -3.0360075E5
1040 1040 6.061005E5
1040 1041 -3.0249975E5
1041 1040 -3.0360075E5
1041 1041 6.061005E5
1041 1042 -3.0249975E5
1042 1041 -3.0360075E5
1042 1042 6.061005E5
1042 1043 -3.0249975E5
1043 1042 -3.0360075E5
1043 1043 6.061005E5
1043 1044 -3.0249975E5
1044 1043 -3.0360075E5
1044 1044 6.061005E5
1044 1045 -3.0249975E5
1045 1044 -3.0360075E5
1045 1045 6.061005E5
1045 1046 -3.0249975E5
1046 1045 -3.0360075E5
1046 1046 6.061005E5
1046 1047 -3.0249975E5
1047 1046 -3.0360075E5
1047 1047 6.061005E5
1047 1048 -3.0249975E5
1048 1047 -3.0360075E5
1048 1048 6.061005E5
1048 1049 -3.0249975E5
1049 1048 -3.0360075E5
1049 1049 6.061005E5
1049 1050 -3.0249975E5
1050 1049 -3.0360075E5
1050 1050 6.061005E5
1050 1051 -3.0249975E5
1051 1050 -3.0360075E5
1051 1051 6.061005E5
1051 1052 -3.0249975E5
1052 1051 -3.0360075E5
1052 1052 6.061005E5
1052 1053 -3.0249975E5
1053 1052 -3.0360075E5
1053 1053 6.061005E5
1053 1054 -3.0249975E5
1054 1053 -3.0360075E5
1054 1054 6.061005E5
1054 1055 -3.0249975E5
1055 1054 -3.0360075E5
1055 1055 6.061005E5
1055 1056 -3.0249975E5
1056 1055 -3.0360075E5
1056 1056 6.061005E5
1056 1057 -3.0249975E5
1057 1056 -3.0360075E5
1057 1057 6.061005E5
1057 1058 -3.0249975E5
1058 1057 -3.0360075E5
1058 1058 6.061005E5
1058 1059 -3.0249975E5
1059 1058 -3.0360075E5
1059 1059 6.061005E5
1059 1060 -3.0249975E5
1060 1059 -3.0360075E5
1060 1060 6.061005E5
1060 1061 -3.0249975E5
1061 1060 -3.0360075E5
1061 1061 6.061005E5
1061 1062 -3.0249975E5
1062 1061 -3.0360075E5
1062 1062 6.061005E5
1062 1063 -3.0249975E5
1063 1062 -3.0360075E5
1063 1063 6.061005E5
1063 1064 -3.0249975E5
1064 1063 -3.0360075E5
1064 1064 6.061005E5
1064 1065 -3.0249975E5
1065 1064 -3.0360075E5
1065 1065 6.061005E5
1065 1066 -3.0249975E5
1066 1065 -3.0360075E5
1066 1066 6.061005E5
1066 1067 -3.0249975E5
1067 1066 -3.0360075E5
1067 1067 6.061005E5
1067 1068 -3.0249975E5
1068 1067 -3.0360075E5
1068 1068 6.061005E5
1068 1069 -3.0249975E5
1069 1068 -3.0360075E5
1069 1069 6.061005E5
1069 1070 -3.0249975E5
1070 1069 -3.0360075E5
1070 1070 6.061005E5
1070 1071 -3.0249975E5
1071 1070 -3.0360075E5
1071 1071 6.061005E5
1071 1072 -3.0249975E5
1072 1071 -3.0360075E5
1072 1072 6.061005E5
1072 1073 -3.0249975E5
1073 1072 -3.0360075E5
1073 1073 6.061005E5
1073 1074 -3.0249975E5
1074 1073 -3.0360075E5
1074 1074 6.061005E5
1074 1075 -3.0249975E5
1075 1074 -3.0360075E5
1075 1075 6.061005E5
1075 1076 -3.0249975E5
1076 1075 -3.0360075E5
1076 1076 6.061005E5
1076 1077 -3.0249975E5
1077 1076 -3.0360075E5
1077 1077 6.061005E5
1077 1078 -3.0249975E5
1078 1077 -3.0360075E5
1078 1078 6.061005E5
1078 1079 -3.0249975E5
1079 1078 -3.0360075E5
1079 1079 6.061005E5
1079 1080 -3.0249975E5
1080 1079 -3.0360075E5
1080 1080 6.061005E5
1080 1081 -3.0249975E5
1081 1080 -3.0360075E5
1081 1081 6.061005E5
1081 1082 -3.0249975E5
1082 1081 -3.0360075E5
1082 1082 6.061005E5
1082 1083 -3.0249975E5
1083 1082 -3.0360075E5
1083 1083 6.061005E5
1083 1084 -3.0249975E5
1084 1083 -3.0360075E5
1084 1084 6.061005E5
1084 1085 -3.0249975E5
1085 1084 -3.0360075E5
1085 1085 6.061005E5
1085 1086 -3.0249975E5
1086 1085 -3.0360075E5
1086 1086 6.061005E5
1086 1087 -3.0249975E5
1087 1086 -3.0360075E5
1087 1087 6.061005E5
1087 1088 -3.0249975E5
1088 1087 -3.0360075E5
1088 1088 6.061005E5
1088 1089 -3.0249975E5
1089 1088 -3.0360075E5
1089 1089 6.061005E5
1089 1090 -3.0249975E5
1090 1089 -3.0360075E5
1090 1090 6.061005E5
1090 1091 -3.0249975E5
1091 1090 -3.0360075E5
1091 1091 6.061005E5
1091 1092 -3.0249975E5
1092 1091 -3.0360075E5
1092 1092 6.061005E5
1092 1093 -3.0249975E5
1093 1092 -3.0360075E5
1093 1093 6.061005E5
1093 1094 -3.0249975E5
1094 1093 -3.0360075E5
1094 1094 6.061005E5
1094 1095 -3.0249975E5
1095 1094 -3.0360075E5
1095 1095 6.061005E5
1095 1096 -3.0249975E5
1096 1095 -3.0360075E5
1096 1096 6.061005E5
1096 1097 -3.0249975E5
1097 1096 -3.0360075E5
1097 1097 6.061005E5
1097 1098 -3.0249975E5
1098 1097 -3.0360075E5
1098 1098 6.061005E5
1098 1099 -3.0249975E5
1099 1098 -3.0360075E5
1099 1099 6.061005E5
1099 1100 -3.0249975E5
1100 1099 -3.0360075E5
1100 1100 6.061005E5
