%%MatrixMarket matrix coordinate real general
% 1D convection-diffusion (-eps*u'' + beta*u' = f), central FD, n=2500, eps=0.18, beta=1.0, kappa~=1422750
2500 2500 7498
1 1 2.25180036E6
1 2 -1.12464968E6
2 1 -1.12715068E6
2 2 2.25180036E6
2 3 -1.12464968E6
3 2 -1.12715068E6
3 3 2.25180036E6
3 4 -1.12464968E6
4 3 -1.12715068E6
4 4 2.25180036E6
4 5 -1.12464968E6
5 4 -1.12715068E6
5 5 2.25180036E6
5 6 -1.12464968E6
6 5 -1.12715068E6
6 6 2.25180036E6
6 7 -1.12464968E6
7 6 -1.12715068E6
7 7 2.25180036E6
7 8 -1.12464968E6
8 7 -1.12715068E6
8 8 2.25180036E6
8 9 -1.12464968E6
9 8 -1.12715068E6
9 9 2.25180036E6
9 10 -1.12464968E6
10 9 -1.12715068E6
10 10 2.25180036E6
10 11 -1.12464968E6
11 10 -1.12715068E6
11 11 2.25180036E6
11 12 -1.12464968E6
12 11 -1.12715068E6
12 12 2.25180036E6
12 13 -1.12464968E6
13 12 -1.12715068E6
13 13 2.25180036E6
13 14 -1.12464968E6
14 13 -1.12715068E6
14 14 2.25180036E6
14 15 -1.12464968E6
15 14 -1.12715068E6
15 15 2.25180036E6
15 16 -1.12464968E6
16 15 -1.12715068E6
16 16 2.25180036E6
16 17 -1.12464968E6
17 16 -1.12715068E6
17 17 2.25180036E6
17 18 -1.12464968E6
18 17 -1.12715068E6
18 18 2.25180036E6
18 19 -1.12464968E6
19 18 -1.12715068E6
19 19 2.25180036E6
19 20 -1.12464968E6
20 19 -1.12715068E6
20 20 2.25180036E6
20 21 -1.12464968E6
21 20 -1.12715068E6
21 21 2.25180036E6
21 22 -1.12464968E6
22 21 -1.12715068E6
22 22 2.25180036E6
22 23 -1.12464968E6
23 22 -1.12715068E6
23 23 2.25180036E6
23 24 -1.12464968E6
24 23 -1.12715068E6
24 24 2.25180036E6
24 25 -1.12464968E6
25 24 -1.12715068E6
25 25 2.25180036E6
25 26 -1.12464968E6
26 25 -1.12715068E6
26 26 2.25180036E6
26 27 -1.12464968E6
27 26 -1.12715068E6
27 27 2.25180036E6
27 28 -1.12464968E6
28 27 -1.12715068E6
28 28 2.25180036E6
28 29 -1.12464968E6
29 28 -1.12715068E6
29 29 2.25180036E6
29 30 -1.12464968E6
30 29 -1.12715068E6
30 30 2.25180036E6
30 31 -1.12464968E6
31 30 -1.12715068E6
31 31 2.25180036E6
31 32 -1.12464968E6
32 31 -1.12715068E6
32 32 2.25180036E6
32 33 -1.12464968E6
33 32 -1.12715068E6
33 33 2.25180036E6
33 34 -1.12464968E6
34 33 -1.12715068E6
34 34 2.25180036E6
34 35 -1.12464968E6
35 34 -1.12715068E6
35 35 2.25180036E6
35 36 -1.12464968E6
36 35 -1.12715068E6
36 36 2.25180036E6
36 37 -1.12464968E6
37 36 -1.12715068E6
37 37 2.25180036E6
37 38 -1.12464968E6
38 37 -1.12715068E6
38 38 2.25180036E6
38 39 -1.12464968E6
39 38 -1.12715068E6
39 39 2.25180036E6
39 40 -1.12464968E6
40 39 -1.12715068E6
40 40 2.25180036E6
40 41 -1.12464968E6
41 40 -1.12715068E6
41 41 2.25180036E6
41 42 -1.12464968E6
42 41 -1.12715068E6
42 42 2.25180036E6
42 43 -1.12464968E6
43 42 -1.12715068E6
43 43 2.25180036E6
43 44 -1.12464968E6
44 43 -1.12715068E6
44 44 2.25180036E6
44 45 -1.12464968E6
45 44 -1.12715068E6
45 45 2.25180036E6
45 46 -1.12464968E6
46 45 -1.12715068E6
46 46 2.25180036E6
46 47 -1.12464968E6
47 46 -1.12715068E6
47 47 2.25180036E6
47 48 -1.12464968E6
48 47 -1.12715068E6
48 48 2.25180036E6
48 49 -1.12464968E6
49 48 -1.12715068E6
49 49 2.25180036E6
49 50 -1.12464968E6
50 49 -1.12715068E6
50 50 2.25180036E6
50 51 -1.12464968E6
51 50 -1.12715068E6
51 51 2.25180036E6
51 52 -1.12464968E6
52 51 -1.12715068E6
52 52 2.25180036E6
52 53 -1.12464968E6
53 52 -1.12715068E6
53 53 2.25180036E6
53 54 -1.12464968E6
54 53 -1.12715068E6
54 54 2.25180036E6
54 55 -1.12464968E6
55 54 -1.12715068E6
55 55 2.25180036E6
55 56 -1.12464968E6
56 55 -1.12715068E6
56 56 2.25180036E6
56 57 -1.12464968E6
57 56 -1.12715068E6
57 57 2.25180036E6
57 58 -1.12464968E6
58 57 -1.12715068E6
58 58 2.25180036E6
58 59 -1.12464968E6
59 58 -1.12715068E6
59 59 2.25180036E6
59 60 -1.12464968E6
60 59 -1.12715068E6
60 60 2.25180036E6
60 61 -1.12464968E6
61 60 -1.12715068E6
61 61 2.25180036E6
61 62 -1.12464968E6
62 61 -1.12715068E6
62 62 2.25180036E6
62 63 -1.12464968E6
63 62 -1.12715068E6
63 63 2.25180036E6
63 64 -1.12464968E6
64 63 -1.12715068E6
64 64 2.25180036E6
64 65 -1.12464968E6
65 64 -1.12715068E6
65 65 2.25180036E6
65 66 -1.12464968E6
66 65 -1.12715068E6
66 66 2.25180036E6
66 67 -1.12464968E6
67 66 -1.12715068E6
67 67 2.25180036E6
67 68 -1.12464968E6
68 67 -1.12715068E6
68 68 2.25180036E6
68 69 -1.12464968E6
69 68 -1.12715068E6
69 69 2.25180036E6
69 70 -1.12464968E6
70 69 -1.12715068E6
70 70 2.25180036E6
70 71 -1.12464968E6
71 70 -1.12715068E6
71 71 2.25180036E6
71 72 -1.12464968E6
72 71 -1.12715068E6
72 72 2.25180036E6
72 73 -1.12464968E6
73 72 -1.12715068E6
73 73 2.25180036E6
73 74 -1.12464968E6
74 73 -1.12715068E6
74 74 2.25180036E6
74 75 -1.12464968E6
75 74 -1.12715068E6
75 75 2.25180036E6
75 76 -1.12464968E6
76 75 -1.12715068E6
76 76 2.25180036E6
76 77 -1.12464968E6
77 76 -1.12715068E6
77 77 2.25180036E6
77 78 -1.12464968E6
78 77 -1.12715068E6
78 78 2.25180036E6
78 79 -1.12464968E6
79 78 -1.12715068E6
79 79 2.25180036E6
79 80 -1.12464968E6
80 79 -1.12715068E6
80 80 2.25180036E6
80 81 -1.12464968E6
81 80 -1.12715068E6
81 81 2.25180036E6
81 82 -1.12464968E6
82 81 -1.12715068E6
82 82 2.25180036E6
82 83 -1.12464968E6
83 82 -1.12715068E6
83 83 2.25180036E6
83 84 -1.12464968E6
84 83 -1.12715068E6
84 84 2.25180036E6
84 85 -1.12464968E6
85 84 -1.12715068E6
85 85 2.25180036E6
85 86 -1.12464968E6
86 85 -1.12715068E6
86 86 2.25180036E6
86 87 -1.12464968E6
87 86 -1.12715068E6
87 87 2.25180036E6
87 88 -1.12464968E6
88 87 -1.12715068E6
88 88 2.25180036E6
88 89 -1.12464968E6
89 88 -1.12715068E6
89 89 2.25180036E6
89 90 -1.12464968E6
90 89 -1.12715068E6
90 90 2.25180036E6
90 91 -1.12464968E6
91 90 -1.12715068E6
91 91 2.25180036E6
91 92 -1.12464968E6
92 91 -1.12715068E6
92 92 2.25180036E6
92 93 -1.12464968E6
93 92 -1.12715068E6
93 93 2.25180036E6
93 94 -1.12464968E6
94 93 -1.12715068E6
94 94 2.25180036E6
94 95 -1.12464968E6
95 94 -1.12715068E6
95 95 2.25180036E6
95 96 -1.12464968E6
96 95 -1.12715068E6
96 96 2.25180036E6
96 97 -1.12464968E6
97 96 -1.12715068E6
97 97 2.25180036E6
97 98 -1.12464968E6
98 97 -1.12715068E6
98 98 2.25180036E6
98 99 -1.12464968E6
99 98 -1.12715068E6
99 99 2.25180036E6
99 100 -1.12464968E6
100 99 -1.12715068E6
100 100 2.25180036E6
100 101 -1.12464968E6
101 100 -1.12715068E6
101 101 2.25180036E6
101 102 -1.12464968E6
102 101 -1.12715068E6
102 102 2.25180036E6
102 103 -1.12464968E6
103 102 -1.12715068E6
103 103 2.25180036E6
103 104 -1.12464968E6
104 103 -1.12715068E6
104 104 2.25180036E6
104 105 -1.12464968E6
105 104 -1.12715068E6
105 105 2.25180036E6
105 106 -1.12464968E6
106 105 -1.12715068E6
106 106 2.25180036E6
106 107 -1.12464968E6
107 106 -1.12715068E6
107 107 2.25180036E6
107 108 -1.12464968E6
108 107 -1.12715068E6
108 108 2.25180036E6
108 109 -1.12464968E6
109 108 -1.12715068E6
109 109 2.25180036E6
109 110 -1.12464968E6
110 109 -1.12715068E6
110 110 2.25180036E6
110 111 -1.12464968E6
111 110 -1.12715068E6
111 111 2.25180036E6
111 112 -1.12464968E6
112 111 -1.12715068E6
112 112 2.25180036E6
112 113 -1.12464968E6
113 112 -1.12715068E6
113 113 2.25180036E6
113 114 -1.12464968E6
114 113 -1.12715068E6
114 114 2.25180036E6
114 115 -1.12464968E6
115 114 -1.12715068E6
115 115 2.25180036E6
115 116 -1.12464968E6
116 115 -1.12715068E6
116 116 2.25180036E6
116 117 -1.12464968E6
117 116 -1.12715068E6
117 117 2.25180036E6
117 118 -1.12464968E6
118 117 -1.12715068E6
118 118 2.25180036E6
118 119 -1.12464968E6
119 118 -1.12715068E6
119 119 2.25180036E6
119 120 -1.12464968E6
120 119 -1.12715068E6
120 120 2.25180036E6
120 121 -1.12464968E6
121 120 -1.12715068E6
121 121 2.25180036E6
121 122 -1.12464968E6
122 121 -1.12715068E6
122 122 2.25180036E6
122 123 -1.12464968E6
123 122 -1.12715068E6
123 123 2.25180036E6
123 124 -1.12464968E6
124 123 -1.12715068E6
124 124 2.25180036E6
124 125 -1.12464968E6
125 124 -1.12715068E6
125 125 2.25180036E6
125 126 -1.12464968E6
126 125 -1.12715068E6
126 126 2.25180036E6
126 127 -1.12464968E6
127 126 -1.12715068E6
127 127 2.25180036E6
127 128 -1.12464968E6
128 127 -1.12715068E6
128 128 2.25180036E6
128 129 -1.12464968E6
129 128 -1.12715068E6
129 129 2.25180036E6
129 130 -1.12464968E6
130 129 -1.12715068E6
130 130 2.25180036E6
130 131 -1.12464968E6
131 130 -1.12715068E6
131 131 2.25180036E6
131 132 -1.12464968E6
132 131 -1.12715068E6
132 132 2.25180036E6
132 133 -1.12464968E6
133 132 -1.12715068E6
133 133 2.25180036E6
133 134 -1.12464968E6
134 133 -1.12715068E6
134 134 2.25180036E6
134 135 -1.12464968E6
135 134 -1.12715068E6
135 135 2.25180036E6
135 136 -1.12464968E6
136 135 -1.12715068E6
136 136 2.25180036E6
136 137 -1.12464968E6
137 136 -1.12715068E6
137 137 2.25180036E6
137 138 -1.12464968E6
138 137 -1.12715068E6
138 138 2.25180036E6
138 139 -1.12464968E6
139 138 -1.12715068E6
139 139 2.25180036E6
139 140 -1.12464968E6
140 139 -1.12715068E6
140 140 2.25180036E6
140 141 -1.12464968E6
141 140 -1.12715068E6
141 141 2.25180036E6
141 142 -1.12464968E6
142 141 -1.12715068E6
142 142 2.25180036E6
142 143 -1.12464968E6
143 142 -1.12715068E6
143 143 2.25180036E6
143 144 -1.12464968E6
144 143 -1.12715068E6
144 144 2.25180036E6
144 145 -1.12464968E6
145 144 -1.12715068E6
145 145 2.25180036E6
145 146 -1.12464968E6
146 145 -1.12715068E6
146 146 2.25180036E6
146 147 -1.12464968E6
147 146 -1.12715068E6
147 147 2.25180036E6
147 148 -1.12464968E6
148 147 -1.12715068E6
148 148 2.25180036E6
148 149 -1.12464968E6
149 148 -1.12715068E6
149 149 2.25180036E6
149 150 -1.12464968E6
150 149 -1.12715068E6
150 150 2.25180036E6
150 151 -1.12464968E6
151 150 -1.12715068E6
151 151 2.25180036E6
151 152 -1.12464968E6
152 151 -1.12715068E6
152 152 2.25180036E6
152 153 -1.12464968E6
153 152 -1.12715068E6
153 153 2.25180036E6
153 154 -1.12464968E6
154 153 -1.12715068E6
154 154 2.25180036E6
154 155 -1.12464968E6
155 154 -1.12715068E6
155 155 2.25180036E6
155 156 -1.12464968E6
156 155 -1.12715068E6
156 156 2.25180036E6
156 157 -1.12464968E6
157 156 -1.12715068E6
157 157 2.25180036E6
157 158 -1.12464968E6
158 157 -1.12715068E6
158 158 2.25180036E6
158 159 -1.12464968E6
159 158 -1.12715068E6
159 159 2.25180036E6
159 160 -1.12464968E6
160 159 -1.12715068E6
160 160 2.25180036E6
160 161 -1.12464968E6
161 160 -1.12715068E6
161 161 2.25180036E6
161 162 -1.12464968E6
162 161 -1.12715068E6
162 162 2.25180036E6
162 163 -1.12464968E6
163 162 -1.12715068E6
163 163 2.25180036E6
163 164 -1.12464968E6
164 163 -1.12715068E6
164 164 2.25180036E6
164 165 -1.12464968E6
165 164 -1.12715068E6
165 165 2.25180036E6
165 166 -1.12464968E6
166 165 -1.12715068E6
166 166 2.25180036E6
166 167 -1.12464968E6
167 166 -1.12715068E6
167 167 2.25180036E6
167 168 -1.12464968E6
168 167 -1.12715068E6
168 168 2.25180036E6
168 169 -1.12464968E6
169 168 -1.12715068E6
169 169 2.25180036E6
169 170 -1.12464968E6
170 169 -1.12715068E6
170 170 2.25180036E6
170 171 -1.12464968E6
171 170 -1.12715068E6
171 171 2.25180036E6
171 172 -1.12464968E6
172 171 -1.12715068E6
172 172 2.25180036E6
172 173 -1.12464968E6
173 172 -1.12715068E6
173 173 2.25180036E6
173 174 -1.12464968E6
174 173 -1.12715068E6
174 174 2.25180036E6
174 175 -1.12464968E6
175 174 -1.12715068E6
175 175 2.25180036E6
175 176 -1.12464968E6
176 175 -1.12715068E6
176 176 2.25180036E6
176 177 -1.12464968E6
177 176 -1.12715068E6
177 177 2.25180036E6
177 178 -1.12464968E6
178 177 -1.12715068E6
178 178 2.25180036E6
178 179 -1.12464968E6
179 178 -1.12715068E6
179 179 2.25180036E6
179 180 -1.12464968E6
180 179 -1.12715068E6
180 180 2.25180036E6
180 181 -1.12464968E6
181 180 -1.12715068E6
181 181 2.25180036E6
181 182 -1.12464968E6
182 181 -1.12715068E6
182 182 2.25180036E6
182 183 -1.12464968E6
183 182 -1.12715068E6
183 183 2.25180036E6
183 184 -1.12464968E6
184 183 -1.12715068E6
184 184 2.25180036E6
184 185 -1.12464968E6
185 184 -1.12715068E6
185 185 2.25180036E6
185 186 -1.12464968E6
186 185 -1.12715068E6
186 186 2.25180036E6
186 187 -1.12464968E6
187 186 -1.12715068E6
187 187 2.25180036E6
187 188 -1.12464968E6
188 187 -1.12715068E6
188 188 2.25180036E6
188 189 -1.12464968E6
189 188 -1.12715068E6
189 189 2.25180036E6
189 190 -1.12464968E6
190 189 -1.12715068E6
190 190 2.25180036E6
190 191 -1.12464968E6
191 190 -1.12715068E6
191 191 2.25180036E6
191 192 -1.12464968E6
192 191 -1.12715068E6
192 192 2.25180036E6
192 193 -1.12464968E6
193 192 -1.12715068E6
193 193 2.25180036E6
193 194 -1.12464968E6
194 193 -1.12715068E6
194 194 2.25180036E6
194 195 -1.12464968E6
195 194 -1.12715068E6
195 195 2.25180036E6
195 196 -1.12464968E6
196 195 -1.12715068E6
196 196 2.25180036E6
196 197 -1.12464968E6
197 196 -1.12715068E6
197 197 2.25180036E6
197 198 -1.12464968E6
198 197 -1.12715068E6
198 198 2.25180036E6
198 199 -1.12464968E6
199 198 -1.12715068E6
199 199 2.25180036E6
199 200 -1.12464968E6
200 199 -1.12715068E6
200 200 2.25180036E6
200 201 -1.12464968E6
201 200 -1.12715068E6
201 201 2.25180036E6
201 202 -1.12464968E6
202 201 -1.12715068E6
202 202 2.25180036E6
202 203 -1.12464968E6
203 202 -1.12715068E6
203 203 2.25180036E6
203 204 -1.12464968E6
204 203 -1.12715068E6
204 204 2.25180036E6
204 205 -1.12464968E6
205 204 -1.12715068E6
205 205 2.25180036E6
205 206 -1.12464968E6
206 205 -1.12715068E6
206 206 2.25180036E6
206 207 -1.12464968E6
207 206 -1.12715068E6
207 207 2.25180036E6
207 208 -1.12464968E6
208 207 -1.12715068E6
208 208 2.25180036E6
208 209 -1.12464968E6
209 208 -1.12715068E6
209 209 2.25180036E6
209 210 -1.12464968E6
210 209 -1.12715068E6
210 210 2.25180036E6
210 211 -1.12464968E6
211 210 -1.12715068E6
211 211 2.25180036E6
211 212 -1.12464968E6
212 211 -1.12715068E6
212 212 2.25180036E6
212 213 -1.12464968E6
213 212 -1.12715068E6
213 213 2.25180036E6
213 214 -1.12464968E6
214 213 -1.12715068E6
214 214 2.25180036E6
214 215 -1.12464968E6
215 214 -1.12715068E6
215 215 2.25180036E6
215 216 -1.12464968E6
216 215 -1.12715068E6
216 216 2.25180036E6
216 217 -1.12464968E6
217 216 -1.12715068E6
217 217 2.25180036E6
217 218 -1.12464968E6
218 217 -1.12715068E6
218 218 2.25180036E6
218 219 -1.12464968E6
219 218 -1.12715068E6
219 219 2.25180036E6
219 220 -1.12464968E6
220 219 -1.12715068E6
220 220 2.25180036E6
220 221 -1.12464968E6
221 220 -1.12715068E6
221 221 2.25180036E6
221 222 -1.12464968E6
222 221 -1.12715068E6
222 222 2.25180036E6
222 223 -1.12464968E6
223 222 -1.12715068E6
223 223 2.25180036E6
223 224 -1.12464968E6
224 223 -1.12715068E6
224 224 2.25180036E6
224 225 -1.12464968E6
225 224 -1.12715068E6
225 225 2.25180036E6
225 226 -1.12464968E6
226 225 -1.12715068E6
226 226 2.25180036E6
226 227 -1.12464968E6
227 226 -1.12715068E6
227 227 2.25180036E6
227 228 -1.12464968E6
228 227 -1.12715068E6
228 228 2.25180036E6
228 229 -1.12464968E6
229 228 -1.12715068E6
229 229 2.25180036E6
229 230 -1.12464968E6
230 229 -1.12715068E6
230 230 2.25180036E6
230 231 -1.12464968E6
231 230 -1.12715068E6
231 231 2.25180036E6
231 232 -1.12464968E6
232 231 -1.12715068E6
232 232 2.25180036E6
232 233 -1.12464968E6
233 232 -1.12715068E6
233 233 2.25180036E6
233 234 -1.12464968E6
234 233 -1.12715068E6
234 234 2.25180036E6
234 235 -1.12464968E6
235 234 -1.12715068E6
235 235 2.25180036E6
235 236 -1.12464968E6
236 235 -1.12715068E6
236 236 2.25180036E6
236 237 -1.12464968E6
237 236 -1.12715068E6
237 237 2.25180036E6
237 238 -1.12464968E6
238 237 -1.12715068E6
238 238 2.25180036E6
238 239 -1.12464968E6
239 238 -1.12715068E6
239 239 2.25180036E6
239 240 -1.12464968E6
240 239 -1.12715068E6
240 240 2.25180036E6
240 241 -1.12464968E6
241 240 -1.12715068E6
241 241 2.25180036E6
241 242 -1.12464968E6
242 241 -1.12715068E6
242 242 2.25180036E6
242 243 -1.12464968E6
243 242 -1.12715068E6
243 243 2.25180036E6
243 244 -1.12464968E6
244 243 -1.12715068E6
244 244 2.25180036E6
244 245 -1.12464968E6
245 244 -1.12715068E6
245 245 2.25180036E6
245 246 -1.12464968E6
246 245 -1.12715068E6
246 246 2.25180036E6
246 247 -1.12464968E6
247 246 -1.12715068E6
247 247 2.25180036E6
247 248 -1.12464968E6
248 247 -1.12715068E6
248 248 2.25180036E6
248 249 -1.12464968E6
249 248 -1.12715068E6
249 249 2.25180036E6
249 250 -1.12464968E6
250 249 -1.12715068E6
250 250 2.25180036E6
250 251 -1.12464968E6
251 250 -1.12715068E6
251 251 2.25180036E6
251 252 -1.12464968E6
252 251 -1.12715068E6
252 252 2.25180036E6
252 253 -1.12464968E6
253 252 -1.12715068E6
253 253 2.25180036E6
253 254 -1.12464968E6
254 253 -1.12715068E6
254 254 2.25180036E6
254 255 -1.12464968E6
255 254 -1.12715068E6
255 255 2.25180036E6
255 256 -1.12464968E6
256 255 -1.12715068E6
256 256 2.25180036E6
256 257 -1.12464968E6
257 256 -1.12715068E6
257 257 2.25180036E6
257 258 -1.12464968E6
258 257 -1.12715068E6
258 258 2.25180036E6
258 259 -1.12464968E6
259 258 -1.12715068E6
259 259 2.25180036E6
259 260 -1.12464968E6
260 259 -1.12715068E6
260 260 2.25180036E6
260 261 -1.12464968E6
261 260 -1.12715068E6
261 261 2.25180036E6
261 262 -1.12464968E6
262 261 -1.12715068E6
262 262 2.25180036E6
262 263 -1.12464968E6
263 262 -1.12715068E6
263 263 2.25180036E6
263 264 -1.12464968E6
264 263 -1.12715068E6
264 264 2.25180036E6
264 265 -1.12464968E6
265 264 -1.12715068E6
265 265 2.25180036E6
265 266 -1.12464968E6
266 265 -1.12715068E6
266 266 2.25180036E6
266 267 -1.12464968E6
267 266 -1.12715068E6
267 267 2.25180036E6
267 268 -1.12464968E6
268 267 -1.12715068E6
268 268 2.25180036E6
268 269 -1.12464968E6
269 268 -1.12715068E6
269 269 2.25180036E6
269 270 -1.12464968E6
270 269 -1.12715068E6
270 270 2.25180036E6
270 271 -1.12464968E6
271 270 -1.12715068E6
271 271 2.25180036E6
271 272 -1.12464968E6
272 271 -1.12715068E6
272 272 2.25180036E6
272 273 -1.12464968E6
273 272 -1.12715068E6
273 273 2.25180036E6
273 274 -1.12464968E6
274 273 -1.12715068E6
274 274 2.25180036E6
274 275 -1.12464968E6
275 274 -1.12715068E6
275 275 2.25180036E6
275 276 -1.12464968E6
276 275 -1.12715068E6
276 276 2.25180036E6
276 277 -1.12464968E6
277 276 -1.12715068E6
277 277 2.25180036E6
277 278 -1.12464968E6
278 277 -1.12715068E6
278 278 2.25180036E6
278 279 -1.12464968E6
279 278 -1.12715068E6
279 279 2.25180036E6
279 280 -1.12464968E6
280 279 -1.12715068E6
280 280 2.25180036E6
280 281 -1.12464968E6
281 280 -1.12715068E6
281 281 2.25180036E6
281 282 -1.12464968E6
282 281 -1.12715068E6
282 282 2.25180036E6
282 283 -1.12464968E6
283 282 -1.12715068E6
283 283 2.25180036E6
283 284 -1.12464968E6
284 283 -1.12715068E6
284 284 2.25180036E6
284 285 -1.12464968E6
285 284 -1.12715068E6
285 285 2.25180036E6
285 286 -1.12464968E6
286 285 -1.12715068E6
286 286 2.25180036E6
286 287 -1.12464968E6
287 286 -1.12715068E6
287 287 2.25180036E6
287 288 -1.12464968E6
288 287 -1.12715068E6
288 288 2.25180036E6
288 289 -1.12464968E6
289 288 -1.12715068E6
289 289 2.25180036E6
289 290 -1.12464968E6
290 289 -1.12715068E6
290 290 2.25180036E6
290 291 -1.12464968E6
291 290 -1.12715068E6
291 291 2.25180036E6
291 292 -1.12464968E6
292 291 -1.12715068E6
292 292 2.25180036E6
292 293 -1.12464968E6
293 292 -1.12715068E6
293 293 2.25180036E6
293 294 -1.12464968E6
294 293 -1.12715068E6
294 294 2.25180036E6
294 295 -1.12464968E6
295 294 -1.12715068E6
295 295 2.25180036E6
295 296 -1.12464968E6
296 295 -1.12715068E6
296 296 2.25180036E6
296 297 -1.12464968E6
297 296 -1.12715068E6
297 297 2.25180036E6
297 298 -1.12464968E6
298 297 -1.12715068E6
298 298 2.25180036E6
298 299 -1.12464968E6
299 298 -1.12715068E6
299 299 2.25180036E6
299 300 -1.12464968E6
300 299 -1.12715068E6
300 300 2.25180036E6
300 301 -1.12464968E6
301 300 -1.12715068E6
301 301 2.25180036E6
301 302 -1.12464968E6
302 301 -1.12715068E6
302 302 2.25180036E6
302 303 -1.12464968E6
303 302 -1.12715068E6
303 303 2.25180036E6
303 304 -1.12464968E6
304 303 -1.12715068E6
304 304 2.25180036E6
304 305 -1.12464968E6
305 304 -1.12715068E6
305 305 2.25180036E6
305 306 -1.12464968E6
306 305 -1.12715068E6
306 306 2.25180036E6
306 307 -1.12464968E6
307 306 -1.12715068E6
307 307 2.25180036E6
307 308 -1.12464968E6
308 307 -1.12715068E6
308 308 2.25180036E6
308 309 -1.12464968E6
309 308 -1.12715068E6
309 309 2.25180036E6
309 310 -1.12464968E6
310 309 -1.12715068E6
310 310 2.25180036E6
310 311 -1.12464968E6
311 310 -1.12715068E6
311 311 2.25180036E6
311 312 -1.12464968E6
312 311 -1.12715068E6
312 312 2.25180036E6
312 313 -1.12464968E6
313 312 -1.12715068E6
313 313 2.25180036E6
313 314 -1.12464968E6
314 313 -1.12715068E6
314 314 2.25180036E6
314 315 -1.12464968E6
315 314 -1.12715068E6
315 315 2.25180036E6
315 316 -1.12464968E6
316 315 -1.12715068E6
316 316 2.25180036E6
316 317 -1.12464968E6
317 316 -1.12715068E6
317 317 2.25180036E6
317 318 -1.12464968E6
318 317 -1.12715068E6
318 318 2.25180036E6
318 319 -1.12464968E6
319 318 -1.12715068E6
319 319 2.25180036E6
319 320 -1.12464968E6
320 319 -1.12715068E6
320 320 2.25180036E6
320 321 -1.12464968E6
321 320 -1.12715068E6
321 321 2.25180036E6
321 322 -1.12464968E6
322 321 -1.12715068E6
322 322 2.25180036E6
322 323 -1.12464968E6
323 322 -1.12715068E6
323 323 2.25180036E6
323 324 -1.12464968E6
324 323 -1.12715068E6
324 324 2.25180036E6
324 325 -1.12464968E6
325 324 -1.12715068E6
325 325 2.25180036E6
325 326 -1.12464968E6
326 325 -1.12715068E6
326 326 2.25180036E6
326 327 -1.12464968E6
327 326 -1.12715068E6
327 327 2.25180036E6
327 328 -1.12464968E6
328 327 -1.12715068E6
328 328 2.25180036E6
328 329 -1.12464968E6
329 328 -1.12715068E6
329 329 2.25180036E6
329 330 -1.12464968E6
330 329 -1.12715068E6
330 330 2.25180036E6
330 331 -1.12464968E6
331 330 -1.12715068E6
331 331 2.25180036E6
331 332 -1.12464968E6
332 331 -1.12715068E6
332 332 2.25180036E6
332 333 -1.12464968E6
333 332 -1.12715068E6
333 333 2.25180036E6
333 334 -1.12464968E6
334 333 -1.12715068E6
334 334 2.25180036E6
334 335 -1.12464968E6
335 334 -1.12715068E6
335 335 2.25180036E6
335 336 -1.12464968E6
336 335 -1.12715068E6
336 336 2.25180036E6
336 337 -1.12464968E6
337 336 -1.12715068E6
337 337 2.25180036E6
337 338 -1.12464968E6
338 337 -1.12715068E6
338 338 2.25180036E6
338 339 -1.12464968E6
339 338 -1.12715068E6
339 339 2.25180036E6
339 340 -1.12464968E6
340 339 -1.12715068E6
340 340 2.25180036E6
340 341 -1.12464968E6
341 340 -1.12715068E6
341 341 2.25180036E6
341 342 -1.12464968E6
342 341 -1.12715068E6
342 342 2.25180036E6
342 343 -1.12464968E6
343 342 -1.12715068E6
343 343 2.25180036E6
343 344 -1.12464968E6
344 343 -1.12715068E6
344 344 2.25180036E6
344 345 -1.12464968E6
345 344 -1.12715068E6
345 345 2.25180036E6
345 346 -1.12464968E6
346 345 -1.12715068E6
346 346 2.25180036E6
346 347 -1.12464968E6
347 346 -1.12715068E6
347 347 2.25180036E6
347 348 -1.12464968E6
348 347 -1.12715068E6
348 348 2.25180036E6
348 349 -1.12464968E6
349 348 -1.12715068E6
349 349 2.25180036E6
349 350 -1.12464968E6
350 349 -1.12715068E6
350 350 2.25180036E6
350 351 -1.12464968E6
351 350 -1.12715068E6
351 351 2.25180036E6
351 352 -1.12464968E6
352 351 -1.12715068E6
352 352 2.25180036E6
352 353 -1.12464968E6
353 352 -1.12715068E6
353 353 2.25180036E6
353 354 -1.12464968E6
354 353 -1.12715068E6
354 354 2.25180036E6
354 355 -1.12464968E6
355 354 -1.12715068E6
355 355 2.25180036E6
355 356 -1.12464968E6
356 355 -1.12715068E6
356 356 2.25180036E6
356 357 -1.12464968E6
357 356 -1.12715068E6
357 357 2.25180036E6
357 358 -1.12464968E6
358 357 -1.12715068E6
358 358 2.25180036E6
358 359 -1.12464968E6
359 358 -1.12715068E6
359 359 2.25180036E6
359 360 -1.12464968E6
360 359 -1.12715068E6
360 360 2.25180036E6
360 361 -1.12464968E6
361 360 -1.12715068E6
361 361 2.25180036E6
361 362 -1.12464968E6
362 361 -1.12715068E6
362 362 2.25180036E6
362 363 -1.12464968E6
363 362 -1.12715068E6
363 363 2.25180036E6
363 364 -1.12464968E6
364 363 -1.12715068E6
364 364 2.25180036E6
364 365 -1.12464968E6
365 364 -1.12715068E6
365 365 2.25180036E6
365 366 -1.12464968E6
366 365 -1.12715068E6
366 366 2.25180036E6
366 367 -1.12464968E6
367 366 -1.12715068E6
367 367 2.25180036E6
367 368 -1.12464968E6
368 367 -1.12715068E6
368 368 2.25180036E6
368 369 -1.12464968E6
369 368 -1.12715068E6
369 369 2.25180036E6
369 370 -1.12464968E6
370 369 -1.12715068E6
370 370 2.25180036E6
370 371 -1.12464968E6
371 370 -1.12715068E6
371 371 2.25180036E6
371 372 -1.12464968E6
372 371 -1.12715068E6
372 372 2.25180036E6
372 373 -1.12464968E6
373 372 -1.12715068E6
373 373 2.25180036E6
373 374 -1.12464968E6
374 373 -1.12715068E6
374 374 2.25180036E6
374 375 -1.12464968E6
375 374 -1.12715068E6
375 375 2.25180036E6
375 376 -1.12464968E6
376 375 -1.12715068E6
376 376 2.25180036E6
376 377 -1.12464968E6
377 376 -1.12715068E6
377 377 2.25180036E6
377 378 -1.12464968E6
378 377 -1.12715068E6
378 378 2.25180036E6
378 379 -1.12464968E6
379 378 -1.12715068E6
379 379 2.25180036E6
379 380 -1.12464968E6
380 379 -1.12715068E6
380 380 2.25180036E6
380 381 -1.12464968E6
381 380 -1.12715068E6
381 381 2.25180036E6
381 382 -1.12464968E6
382 381 -1.12715068E6
382 382 2.25180036E6
382 383 -1.12464968E6
383 382 -1.12715068E6
383 383 2.25180036E6
383 384 -1.12464968E6
384 383 -1.12715068E6
384 384 2.25180036E6
384 385 -1.12464968E6
385 384 -1.12715068E6
385 385 2.25180036E6
385 386 -1.12464968E6
386 385 -1.12715068E6
386 386 2.25180036E6
386 387 -1.12464968E6
387 386 -1.12715068E6
387 387 2.25180036E6
387 388 -1.12464968E6
388 387 -1.12715068E6
388 388 2.25180036E6
388 389 -1.12464968E6
389 388 -1.12715068E6
389 389 2.25180036E6
389 390 -1.12464968E6
390 389 -1.12715068E6
390 390 2.25180036E6
390 391 -1.12464968E6
391 390 -1.12715068E6
391 391 2.25180036E6
391 392 -1.12464968E6
392 391 -1.12715068E6
392 392 2.25180036E6
392 393 -1.12464968E6
393 392 -1.12715068E6
393 393 2.25180036E6
393 394 -1.12464968E6
394 393 -1.12715068E6
394 394 2.25180036E6
394 395 -1.12464968E6
395 394 -1.12715068E6
395 395 2.25180036E6
395 396 -1.12464968E6
396 395 -1.12715068E6
396 396 2.25180036E6
396 397 -1.12464968E6
397 396 -1.12715068E6
397 397 2.25180036E6
397 398 -1.12464968E6
398 397 -1.12715068E6
398 398 2.25180036E6
398 399 -1.12464968E6
399 398 -1.12715068E6
399 399 2.25180036E6
399 400 -1.12464968E6
400 399 -1.12715068E6
400 400 2.25180036E6
400 401 -1.12464968E6
401 400 -1.12715068E6
401 401 2.25180036E6
401 402 -1.12464968E6
402 401 -1.12715068E6
402 402 2.25180036E6
402 403 -1.12464968E6
403 402 -1.12715068E6
403 403 2.25180036E6
403 404 -1.12464968E6
404 403 -1.12715068E6
404 404 2.25180036E6
404 405 -1.12464968E6
405 404 -1.12715068E6
405 405 2.25180036E6
405 406 -1.12464968E6
406 405 -1.12715068E6
406 406 2.25180036E6
406 407 -1.12464968E6
407 406 -1.12715068E6
407 407 2.25180036E6
407 408 -1.12464968E6
408 407 -1.12715068E6
408 408 2.25180036E6
408 409 -1.12464968E6
409 408 -1.12715068E6
409 409 2.25180036E6
409 410 -1.12464968E6
410 409 -1.12715068E6
410 410 2.25180036E6
410 411 -1.12464968E6
411 410 -1.12715068E6
411 411 2.25180036E6
411 412 -1.12464968E6
412 411 -1.12715068E6
412 412 2.25180036E6
412 413 -1.12464968E6
413 412 -1.12715068E6
413 413 2.25180036E6
413 414 -1.12464968E6
414 413 -1.12715068E6
414 414 2.25180036E6
414 415 -1.12464968E6
415 414 -1.12715068E6
415 415 2.25180036E6
415 416 -1.12464968E6
416 415 -1.12715068E6
416 416 2.25180036E6
416 417 -1.12464968E6
417 416 -1.12715068E6
417 417 2.25180036E6
417 418 -1.12464968E6
418 417 -1.12715068E6
418 418 2.25180036E6
418 419 -1.12464968E6
419 418 -1.12715068E6
419 419 2.25180036E6
419 420 -1.12464968E6
420 419 -1.12715068E6
420 420 2.25180036E6
420 421 -1.12464968E6
421 420 -1.12715068E6
421 421 2.25180036E6
421 422 -1.12464968E6
422 421 -1.12715068E6
422 422 2.25180036E6
422 423 -1.12464968E6
423 422 -1.12715068E6
423 423 2.25180036E6
423 424 -1.12464968E6
424 423 -1.12715068E6
424 424 2.25180036E6
424 425 -1.12464968E6
425 424 -1.12715068E6
425 425 2.25180036E6
425 426 -1.12464968E6
426 425 -1.12715068E6
426 426 2.25180036E6
426 427 -1.12464968E6
427 426 -1.12715068E6
427 427 2.25180036E6
427 428 -1.12464968E6
428 427 -1.12715068E6
428 428 2.25180036E6
428 429 -1.12464968E6
429 428 -1.12715068E6
429 429 2.25180036E6
429 430 -1.12464968E6
430 429 -1.12715068E6
430 430 2.25180036E6
430 431 -1.12464968E6
431 430 -1.12715068E6
431 431 2.25180036E6
431 432 -1.12464968E6
432 431 -1.12715068E6
432 432 2.25180036E6
432 433 -1.12464968E6
433 432 -1.12715068E6
433 433 2.25180036E6
433 434 -1.12464968E6
434 433 -1.12715068E6
434 434 2.25180036E6
434 435 -1.12464968E6
435 434 -1.12715068E6
435 435 2.25180036E6
435 436 -1.12464968E6
436 435 -1.12715068E6
436 436 2.25180036E6
436 437 -1.12464968E6
437 436 -1.12715068E6
437 437 2.25180036E6
437 438 -1.12464968E6
438 437 -1.12715068E6
438 438 2.25180036E6
438 439 -1.12464968E6
439 438 -1.12715068E6
439 439 2.25180036E6
439 440 -1.12464968E6
440 439 -1.12715068E6
440 440 2.25180036E6
440 441 -1.12464968E6
441 440 -1.12715068E6
441 441 2.25180036E6
441 442 -1.12464968E6
442 441 -1.12715068E6
442 442 2.25180036E6
442 443 -1.12464968E6
443 442 -1.12715068E6
443 443 2.25180036E6
443 444 -1.12464968E6
444 443 -1.12715068E6
444 444 2.25180036E6
444 445 -1.12464968E6
445 444 -1.12715068E6
445 445 2.25180036E6
445 446 -1.12464968E6
446 445 -1.12715068E6
446 446 2.25180036E6
446 447 -1.12464968E6
447 446 -1.12715068E6
447 447 2.25180036E6
447 448 -1.12464968E6
448 447 -1.12715068E6
448 448 2.25180036E6
448 449 -1.12464968E6
449 448 -1.12715068E6
449 449 2.25180036E6
449 450 -1.12464968E6
450 449 -1.12715068E6
450 450 2.25180036E6
450 451 -1.12464968E6
451 450 -1.12715068E6
451 451 2.25180036E6
451 452 -1.12464968E6
452 451 -1.12715068E6
452 452 2.25180036E6
452 453 -1.12464968E6
453 452 -1.12715068E6
453 453 2.25180036E6
453 454 -1.12464968E6
454 453 -1.12715068E6
454 454 2.25180036E6
454 455 -1.12464968E6
455 454 -1.12715068E6
455 455 2.25180036E6
455 456 -1.12464968E6
456 455 -1.12715068E6
456 456 2.25180036E6
456 457 -1.12464968E6
457 456 -1.12715068E6
457 457 2.25180036E6
457 458 -1.12464968E6
458 457 -1.12715068E6
458 458 2.25180036E6
458 459 -1.12464968E6
459 458 -1.12715068E6
459 459 2.25180036E6
459 460 -1.12464968E6
460 459 -1.12715068E6
460 460 2.25180036E6
460 461 -1.12464968E6
461 460 -1.12715068E6
461 461 2.25180036E6
461 462 -1.12464968E6
462 461 -1.12715068E6
462 462 2.25180036E6
462 463 -1.12464968E6
463 462 -1.12715068E6
463 463 2.25180036E6
463 464 -1.12464968E6
464 463 -1.12715068E6
464 464 2.25180036E6
464 465 -1.12464968E6
465 464 -1.12715068E6
465 465 2.25180036E6
465 466 -1.12464968E6
466 465 -1.12715068E6
466 466 2.25180036E6
466 467 -1.12464968E6
467 466 -1.12715068E6
467 467 2.25180036E6
467 468 -1.12464968E6
468 467 -1.12715068E6
468 468 2.25180036E6
468 469 -1.12464968E6
469 468 -1.12715068E6
469 469 2.25180036E6
469 470 -1.12464968E6
470 469 -1.12715068E6
470 470 2.25180036E6
470 471 -1.12464968E6
471 470 -1.12715068E6
471 471 2.25180036E6
471 472 -1.12464968E6
472 471 -1.12715068E6
472 472 2.25180036E6
472 473 -1.12464968E6
473 472 -1.12715068E6
473 473 2.25180036E6
473 474 -1.12464968E6
474 473 -1.12715068E6
474 474 2.25180036E6
474 475 -1.12464968E6
475 474 -1.12715068E6
475 475 2.25180036E6
475 476 -1.12464968E6
476 475 -1.12715068E6
476 476 2.25180036E6
476 477 -1.12464968E6
477 476 -1.12715068E6
477 477 2.25180036E6
477 478 -1.12464968E6
478 477 -1.12715068E6
478 478 2.25180036E6
478 479 -1.12464968E6
479 478 -1.12715068E6
479 479 2.25180036E6
479 480 -1.12464968E6
480 479 -1.12715068E6
480 480 2.25180036E6
480 481 -1.12464968E6
481 480 -1.12715068E6
481 481 2.25180036E6
481 482 -1.12464968E6
482 481 -1.12715068E6
482 482 2.25180036E6
482 483 -1.12464968E6
483 482 -1.12715068E6
483 483 2.25180036E6
483 484 -1.12464968E6
484 483 -1.12715068E6
484 484 2.25180036E6
484 485 -1.12464968E6
485 484 -1.12715068E6
485 485 2.25180036E6
485 486 -1.12464968E6
486 485 -1.12715068E6
486 486 2.25180036E6
486 487 -1.12464968E6
487 486 -1.12715068E6
487 487 2.25180036E6
487 488 -1.12464968E6
488 487 -1.12715068E6
488 488 2.25180036E6
488 489 -1.12464968E6
489 488 -1.12715068E6
489 489 2.25180036E6
489 490 -1.12464968E6
490 489 -1.12715068E6
490 490 2.25180036E6
490 491 -1.12464968E6
491 490 -1.12715068E6
491 491 2.25180036E6
491 492 -1.12464968E6
492 491 -1.12715068E6
492 492 2.25180036E6
492 493 -1.12464968E6
493 492 -1.12715068E6
493 493 2.25180036E6
493 494 -1.12464968E6
494 493 -1.12715068E6
494 494 2.25180036E6
494 495 -1.12464968E6
495 494 -1.12715068E6
495 495 2.25180036E6
495 496 -1.12464968E6
496 495 -1.12715068E6
496 496 2.25180036E6
496 497 -1.12464968E6
497 496 -1.12715068E6
497 497 2.25180036E6
497 498 -1.12464968E6
498 497 -1.12715068E6
498 498 2.25180036E6
498 499 -1.12464968E6
499 498 -1.12715068E6
499 499 2.25180036E6
499 500 -1.12464968E6
500 499 -1.12715068E6
500 500 2.25180036E6
500 501 -1.12464968E6
501 500 -1.12715068E6
501 501 2.25180036E6
501 502 -1.12464968E6
502 501 -1.12715068E6
502 502 2.25180036E6
502 503 -1.12464968E6
503 502 -1.12715068E6
503 503 2.25180036E6
503 504 -1.12464968E6
504 503 -1.12715068E6
504 504 2.25180036E6
504 505 -1.12464968E6
505 504 -1.12715068E6
505 505 2.25180036E6
505 506 -1.12464968E6
506 505 -1.12715068E6
506 506 2.25180036E6
506 507 -1.12464968E6
507 506 -1.12715068E6
507 507 2.25180036E6
507 508 -1.12464968E6
508 507 -1.12715068E6
508 508 2.25180036E6
508 509 -1.12464968E6
509 508 -1.12715068E6
509 509 2.25180036E6
509 510 -1.12464968E6
510 509 -1.12715068E6
510 510 2.25180036E6
510 511 -1.12464968E6
511 510 -1.12715068E6
511 511 2.25180036E6
511 512 -1.12464968E6
512 511 -1.12715068E6
512 512 2.25180036E6
512 513 -1.12464968E6
513 512 -1.12715068E6
513 513 2.25180036E6
513 514 -1.12464968E6
514 513 -1.12715068E6
514 514 2.25180036E6
514 515 -1.12464968E6
515 514 -1.12715068E6
515 515 2.25180036E6
515 516 -1.12464968E6
516 515 -1.12715068E6
516 516 2.25180036E6
516 517 -1.12464968E6
517 516 -1.12715068E6
517 517 2.25180036E6
517 518 -1.12464968E6
518 517 -1.12715068E6
518 518 2.25180036E6
518 519 -1.12464968E6
519 518 -1.12715068E6
519 519 2.25180036E6
519 520 -1.12464968E6
520 519 -1.12715068E6
520 520 2.25180036E6
520 521 -1.12464968E6
521 520 -1.12715068E6
521 521 2.25180036E6
521 522 -1.12464968E6
522 521 -1.12715068E6
522 522 2.25180036E6
522 523 -1.12464968E6
523 522 -1.12715068E6
523 523 2.25180036E6
523 524 -1.12464968E6
524 523 -1.12715068E6
524 524 2.25180036E6
524 525 -1.12464968E6
525 524 -1.12715068E6
525 525 2.25180036E6
525 526 -1.12464968E6
526 525 -1.12715068E6
526 526 2.25180036E6
526 527 -1.12464968E6
527 526 -1.12715068E6
527 527 2.25180036E6
527 528 -1.12464968E6
528 527 -1.12715068E6
528 528 2.25180036E6
528 529 -1.12464968E6
529 528 -1.12715068E6
529 529 2.25180036E6
529 530 -1.12464968E6
530 529 -1.12715068E6
530 530 2.25180036E6
530 531 -1.12464968E6
531 530 -1.12715068E6
531 531 2.25180036E6
531 532 -1.12464968E6
532 531 -1.12715068E6
532 532 2.25180036E6
532 533 -1.12464968E6
533 532 -1.12715068E6
533 533 2.25180036E6
533 534 -1.12464968E6
534 533 -1.12715068E6
534 534 2.25180036E6
534 535 -1.12464968E6
535 534 -1.12715068E6
535 535 2.25180036E6
535 536 -1.12464968E6
536 535 -1.12715068E6
536 536 2.25180036E6
536 537 -1.12464968E6
537 536 -1.12715068E6
537 537 2.25180036E6
537 538 -1.12464968E6
538 537 -1.12715068E6
538 538 2.25180036E6
538 539 -1.12464968E6
539 538 -1.12715068E6
539 539 2.25180036E6
539 540 -1.12464968E6
540 539 -1.12715068E6
540 540 2.25180036E6
540 541 -1.12464968E6
541 540 -1.12715068E6
541 541 2.25180036E6
541 542 -1.12464968E6
542 541 -1.12715068E6
542 542 2.25180036E6
542 543 -1.12464968E6
543 542 -1.12715068E6
543 543 2.25180036E6
543 544 -1.12464968E6
544 543 -1.12715068E6
544 544 2.25180036E6
544 545 -1.12464968E6
545 544 -1.12715068E6
545 545 2.25180036E6
545 546 -1.12464968E6
546 545 -1.12715068E6
546 546 2.25180036E6
546 547 -1.12464968E6
547 546 -1.12715068E6
547 547 2.25180036E6
547 548 -1.12464968E6
548 547 -1.12715068E6
548 548 2.25180036E6
548 549 -1.12464968E6
549 548 -1.12715068E6
549 549 2.25180036E6
549 550 -1.12464968E6
550 549 -1.12715068E6
550 550 2.25180036E6
550 551 -1.12464968E6
551 550 -1.12715068E6
551 551 2.25180036E6
551 552 -1.12464968E6
552 551 -1.12715068E6
552 552 2.25180036E6
552 553 -1.12464968E6
553 552 -1.12715068E6
553 553 2.25180036E6
553 554 -1.12464968E6
554 553 -1.12715068E6
554 554 2.25180036E6
554 555 -1.12464968E6
555 554 -1.12715068E6
555 555 2.25180036E6
555 556 -1.12464968E6
556 555 -1.12715068E6
556 556 2.25180036E6
556 557 -1.12464968E6
557 556 -1.12715068E6
557 557 2.25180036E6
557 558 -1.12464968E6
558 557 -1.12715068E6
558 558 2.25180036E6
558 559 -1.12464968E6
559 558 -1.12715068E6
559 559 2.25180036E6
559 560 -1.12464968E6
560 559 -1.12715068E6
560 560 2.25180036E6
560 561 -1.12464968E6
561 560 -1.12715068E6
561 561 2.25180036E6
561 562 -1.12464968E6
562 561 -1.12715068E6
562 562 2.25180036E6
562 563 -1.12464968E6
563 562 -1.12715068E6
563 563 2.25180036E6
563 564 -1.12464968E6
564 563 -1.12715068E6
564 564 2.25180036E6
564 565 -1.12464968E6
565 564 -1.12715068E6
565 565 2.25180036E6
565 566 -1.12464968E6
566 565 -1.12715068E6
566 566 2.25180036E6
566 567 -1.12464968E6
567 566 -1.12715068E6
567 567 2.25180036E6
567 568 -1.12464968E6
568 567 -1.12715068E6
568 568 2.25180036E6
568 569 -1.12464968E6
569 568 -1.12715068E6
569 569 2.25180036E6
569 570 -1.12464968E6
570 569 -1.12715068E6
570 570 2.25180036E6
570 571 -1.12464968E6
571 570 -1.12715068E6
571 571 2.25180036E6
571 572 -1.12464968E6
572 571 -1.12715068E6
572 572 2.25180036E6
572 573 -1.12464968E6
573 572 -1.12715068E6
573 573 2.25180036E6
573 574 -1.12464968E6
574 573 -1.12715068E6
574 574 2.25180036E6
574 575 -1.12464968E6
575 574 -1.12715068E6
575 575 2.25180036E6
575 576 -1.12464968E6
576 575 -1.12715068E6
576 576 2.25180036E6
576 577 -1.12464968E6
577 576 -1.12715068E6
577 577 2.25180036E6
577 578 -1.12464968E6
578 577 -1.12715068E6
578 578 2.25180036E6
578 579 -1.12464968E6
579 578 -1.12715068E6
579 579 2.25180036E6
579 580 -1.12464968E6
580 579 -1.12715068E6
580 580 2.25180036E6
580 581 -1.12464968E6
581 580 -1.12715068E6
581 581 2.25180036E6
581 582 -1.12464968E6
582 581 -1.12715068E6
582 582 2.25180036E6
582 583 -1.12464968E6
583 582 -1.12715068E6
583 583 2.25180036E6
583 584 -1.12464968E6
584 583 -1.12715068E6
584 584 2.25180036E6
584 585 -1.12464968E6
585 584 -1.12715068E6
585 585 2.25180036E6
585 586 -1.12464968E6
586 585 -1.12715068E6
586 586 2.25180036E6
586 587 -1.12464968E6
587 586 -1.12715068E6
587 587 2.25180036E6
587 588 -1.12464968E6
588 587 -1.12715068E6
588 588 2.25180036E6
588 589 -1.12464968E6
589 588 -1.12715068E6
589 589 2.25180036E6
589 590 -1.12464968E6
590 589 -1.12715068E6
590 590 2.25180036E6
590 591 -1.12464968E6
591 590 -1.12715068E6
591 591 2.25180036E6
591 592 -1.12464968E6
592 591 -1.12715068E6
592 592 2.25180036E6
592 593 -1.12464968E6
593 592 -1.12715068E6
593 593 2.25180036E6
593 594 -1.12464968E6
594 593 -1.12715068E6
594 594 2.25180036E6
594 595 -1.12464968E6
595 594 -1.12715068E6
595 595 2.25180036E6
595 596 -1.12464968E6
596 595 -1.12715068E6
596 596 2.25180036E6
596 597 -1.12464968E6
597 596 -1.12715068E6
597 597 2.25180036E6
597 598 -1.12464968E6
598 597 -1.12715068E6
598 598 2.25180036E6
598 599 -1.12464968E6
599 598 -1.12715068E6
599 599 2.25180036E6
599 600 -1.12464968E6
600 599 -1.12715068E6
600 600 2.25180036E6
600 601 -1.12464968E6
601 600 -1.12715068E6
601 601 2.25180036E6
601 602 -1.12464968E6
602 601 -1.12715068E6
602 602 2.25180036E6
602 603 -1.12464968E6
603 602 -1.12715068E6
603 603 2.25180036E6
603 604 -1.12464968E6
604 603 -1.12715068E6
604 604 2.25180036E6
604 605 -1.12464968E6
605 604 -1.12715068E6
605 605 2.25180036E6
605 606 -1.12464968E6
606 605 -1.12715068E6
606 606 2.25180036E6
606 607 -1.12464968E6
607 606 -1.12715068E6
607 607 2.25180036E6
607 608 -1.12464968E6
608 607 -1.12715068E6
608 608 2.25180036E6
608 609 -1.12464968E6
609 608 -1.12715068E6
609 609 2.25180036E6
609 610 -1.12464968E6
610 609 -1.12715068E6
610 610 2.25180036E6
610 611 -1.12464968E6
611 610 -1.12715068E6
611 611 2.25180036E6
611 612 -1.12464968E6
612 611 -1.12715068E6
612 612 2.25180036E6
612 613 -1.12464968E6
613 612 -1.12715068E6
613 613 2.25180036E6
613 614 -1.12464968E6
614 613 -1.12715068E6
614 614 2.25180036E6
614 615 -1.12464968E6
615 614 -1.12715068E6
615 615 2.25180036E6
615 616 -1.12464968E6
616 615 -1.12715068E6
616 616 2.25180036E6
616 617 -1.12464968E6
617 616 -1.12715068E6
617 617 2.25180036E6
617 618 -1.12464968E6
618 617 -1.12715068E6
618 618 2.25180036E6
618 619 -1.12464968E6
619 618 -1.12715068E6
619 619 2.25180036E6
619 620 -1.12464968E6
620 619 -1.12715068E6
620 620 2.25180036E6
620 621 -1.12464968E6
621 620 -1.12715068E6
621 621 2.25180036E6
621 622 -1.12464968E6
622 621 -1.12715068E6
622 622 2.25180036E6
622 623 -1.12464968E6
623 622 -1.12715068E6
623 623 2.25180036E6
623 624 -1.12464968E6
624 623 -1.12715068E6
624 624 2.25180036E6
624 625 -1.12464968E6
625 624 -1.12715068E6
625 625 2.25180036E6
625 626 -1.12464968E6
626 625 -1.12715068E6
626 626 2.25180036E6
626 627 -1.12464968E6
627 626 -1.12715068E6
627 627 2.25180036E6
627 628 -1.12464968E6
628 627 -1.12715068E6
628 628 2.25180036E6
628 629 -1.12464968E6
629 628 -1.12715068E6
629 629 2.25180036E6
629 630 -1.12464968E6
630 629 -1.12715068E6
630 630 2.25180036E6
630 631 -1.12464968E6
631 630 -1.12715068E6
631 631 2.25180036E6
631 632 -1.12464968E6
632 631 -1.12715068E6
632 632 2.25180036E6
632 633 -1.12464968E6
633 632 -1.12715068E6
633 633 2.25180036E6
633 634 -1.12464968E6
634 633 -1.12715068E6
634 634 2.25180036E6
634 635 -1.12464968E6
635 634 -1.12715068E6
635 635 2.25180036E6
635 636 -1.12464968E6
636 635 -1.12715068E6
636 636 2.25180036E6
636 637 -1.12464968E6
637 636 -1.12715068E6
637 637 2.25180036E6
637 638 -1.12464968E6
638 637 -1.12715068E6
638 638 2.25180036E6
638 639 -1.12464968E6
639 638 -1.12715068E6
639 639 2.25180036E6
639 640 -1.12464968E6
640 639 -1.12715068E6
640 640 2.25180036E6
640 641 -1.12464968E6
641 640 -1.12715068E6
641 641 2.25180036E6
641 642 -1.12464968E6
642 641 -1.12715068E6
642 642 2.25180036E6
642 643 -1.12464968E6
643 642 -1.12715068E6
643 643 2.25180036E6
643 644 -1.12464968E6
644 643 -1.12715068E6
644 644 2.25180036E6
644 645 -1.12464968E6
645 644 -1.12715068E6
645 645 2.25180036E6
645 646 -1.12464968E6
646 645 -1.12715068E6
646 646 2.25180036E6
646 647 -1.12464968E6
647 646 -1.12715068E6
647 647 2.25180036E6
647 648 -1.12464968E6
648 647 -1.12715068E6
648 648 2.25180036E6
648 649 -1.12464968E6
649 648 -1.12715068E6
649 649 2.25180036E6
649 650 -1.12464968E6
650 649 -1.12715068E6
650 650 2.25180036E6
650 651 -1.12464968E6
651 650 -1.12715068E6
651 651 2.25180036E6
651 652 -1.12464968E6
652 651 -1.12715068E6
652 652 2.25180036E6
652 653 -1.12464968E6
653 652 -1.12715068E6
653 653 2.25180036E6
653 654 -1.12464968E6
654 653 -1.12715068E6
654 654 2.25180036E6
654 655 -1.12464968E6
655 654 -1.12715068E6
655 655 2.25180036E6
655 656 -1.12464968E6
656 655 -1.12715068E6
656 656 2.25180036E6
656 657 -1.12464968E6
657 656 -1.12715068E6
657 657 2.25180036E6
657 658 -1.12464968E6
658 657 -1.12715068E6
658 658 2.25180036E6
658 659 -1.12464968E6
659 658 -1.12715068E6
659 659 2.25180036E6
659 660 -1.12464968E6
660 659 -1.12715068E6
660 660 2.25180036E6
660 661 -1.12464968E6
661 660 -1.12715068E6
661 661 2.25180036E6
661 662 -1.12464968E6
662 661 -1.12715068E6
662 662 2.25180036E6
662 663 -1.12464968E6
663 662 -1.12715068E6
663 663 2.25180036E6
663 664 -1.12464968E6
664 663 -1.12715068E6
664 664 2.25180036E6
664 665 -1.12464968E6
665 664 -1.12715068E6
665 665 2.25180036E6
665 666 -1.12464968E6
666 665 -1.12715068E6
666 666 2.25180036E6
666 667 -1.12464968E6
667 666 -1.12715068E6
667 667 2.25180036E6
667 668 -1.12464968E6
668 667 -1.12715068E6
668 668 2.25180036E6
668 669 -1.12464968E6
669 668 -1.12715068E6
669 669 2.25180036E6
669 670 -1.12464968E6
670 669 -1.12715068E6
670 670 2.25180036E6
670 671 -1.12464968E6
671 670 -1.12715068E6
671 671 2.25180036E6
671 672 -1.12464968E6
672 671 -1.12715068E6
672 672 2.25180036E6
672 673 -1.12464968E6
673 672 -1.12715068E6
673 673 2.25180036E6
673 674 -1.12464968E6
674 673 -1.12715068E6
674 674 2.25180036E6
674 675 -1.12464968E6
675 674 -1.12715068E6
675 675 2.25180036E6
675 676 -1.12464968E6
676 675 -1.12715068E6
676 676 2.25180036E6
676 677 -1.12464968E6
677 676 -1.12715068E6
677 677 2.25180036E6
677 678 -1.12464968E6
678 677 -1.12715068E6
678 678 2.25180036E6
678 679 -1.12464968E6
679 678 -1.12715068E6
679 679 2.25180036E6
679 680 -1.12464968E6
680 679 -1.12715068E6
680 680 2.25180036E6
680 681 -1.12464968E6
681 680 -1.12715068E6
681 681 2.25180036E6
681 682 -1.12464968E6
682 681 -1.12715068E6
682 682 2.25180036E6
682 683 -1.12464968E6
683 682 -1.12715068E6
683 683 2.25180036E6
683 684 -1.12464968E6
684 683 -1.12715068E6
684 684 2.25180036E6
684 685 -1.12464968E6
685 684 -1.12715068E6
685 685 2.25180036E6
685 686 -1.12464968E6
686 685 -1.12715068E6
686 686 2.25180036E6
686 687 -1.12464968E6
687 686 -1.12715068E6
687 687 2.25180036E6
687 688 -1.12464968E6
688 687 -1.12715068E6
688 688 2.25180036E6
688 689 -1.12464968E6
689 688 -1.12715068E6
689 689 2.25180036E6
689 690 -1.12464968E6
690 689 -1.12715068E6
690 690 2.25180036E6
690 691 -1.12464968E6
691 690 -1.12715068E6
691 691 2.25180036E6
691 692 -1.12464968E6
692 691 -1.12715068E6
692 692 2.25180036E6
692 693 -1.12464968E6
693 692 -1.12715068E6
693 693 2.25180036E6
693 694 -1.12464968E6
694 693 -1.12715068E6
694 694 2.25180036E6
694 695 -1.12464968E6
695 694 -1.12715068E6
695 695 2.25180036E6
695 696 -1.12464968E6
696 695 -1.12715068E6
696 696 2.25180036E6
696 697 -1.12464968E6
697 696 -1.12715068E6
697 697 2.25180036E6
697 698 -1.12464968E6
698 697 -1.12715068E6
698 698 2.25180036E6
698 699 -1.12464968E6
699 698 -1.12715068E6
699 699 2.25180036E6
699 700 -1.12464968E6
700 699 -1.12715068E6
700 700 2.25180036E6
700 701 -1.12464968E6
701 700 -1.12715068E6
701 701 2.25180036E6
701 702 -1.12464968E6
702 701 -1.12715068E6
702 702 2.25180036E6
702 703 -1.12464968E6
703 702 -1.12715068E6
703 703 2.25180036E6
703 704 -1.12464968E6
704 703 -1.12715068E6
704 704 2.25180036E6
704 705 -1.12464968E6
705 704 -1.12715068E6
705 705 2.25180036E6
705 706 -1.12464968E6
706 705 -1.12715068E6
706 706 2.25180036E6
706 707 -1.12464968E6
707 706 -1.12715068E6
707 707 2.25180036E6
707 708 -1.12464968E6
708 707 -1.12715068E6
708 708 2.25180036E6
708 709 -1.12464968E6
709 708 -1.12715068E6
709 709 2.25180036E6
709 710 -1.12464968E6
710 709 -1.12715068E6
710 710 2.25180036E6
710 711 -1.12464968E6
711 710 -1.12715068E6
711 711 2.25180036E6
711 712 -1.12464968E6
712 711 -1.12715068E6
712 712 2.25180036E6
712 713 -1.12464968E6
713 712 -1.12715068E6
713 713 2.25180036E6
713 714 -1.12464968E6
714 713 -1.12715068E6
714 714 2.25180036E6
714 715 -1.12464968E6
715 714 -1.12715068E6
715 715 2.25180036E6
715 716 -1.12464968E6
716 715 -1.12715068E6
716 716 2.25180036E6
716 717 -1.12464968E6
717 716 -1.12715068E6
717 717 2.25180036E6
717 718 -1.12464968E6
718 717 -1.12715068E6
718 718 2.25180036E6
718 719 -1.12464968E6
719 718 -1.12715068E6
719 719 2.25180036E6
719 720 -1.12464968E6
720 719 -1.12715068E6
720 720 2.25180036E6
720 721 -1.12464968E6
721 720 -1.12715068E6
721 721 2.25180036E6
721 722 -1.12464968E6
722 721 -1.12715068E6
722 722 2.25180036E6
722 723 -1.12464968E6
723 722 -1.12715068E6
723 723 2.25180036E6
723 724 -1.12464968E6
724 723 -1.12715068E6
724 724 2.25180036E6
724 725 -1.12464968E6
725 724 -1.12715068E6
725 725 2.25180036E6
725 726 -1.12464968E6
726 725 -1.12715068E6
726 726 2.25180036E6
726 727 -1.12464968E6
727 726 -1.12715068E6
727 727 2.25180036E6
727 728 -1.12464968E6
728 727 -1.12715068E6
728 728 2.25180036E6
728 729 -1.12464968E6
729 728 -1.12715068E6
729 729 2.25180036E6
729 730 -1.12464968E6
730 729 -1.12715068E6
730 730 2.25180036E6
730 731 -1.12464968E6
731 730 -1.12715068E6
731 731 2.25180036E6
731 732 -1.12464968E6
732 731 -1.12715068E6
732 732 2.25180036E6
732 733 -1.12464968E6
733 732 -1.12715068E6
733 733 2.25180036E6
733 734 -1.12464968E6
734 733 -1.12715068E6
734 734 2.25180036E6
734 735 -1.12464968E6
735 734 -1.12715068E6
735 735 2.25180036E6
735 736 -1.12464968E6
736 735 -1.12715068E6
736 736 2.25180036E6
736 737 -1.12464968E6
737 736 -1.12715068E6
737 737 2.25180036E6
737 738 -1.12464968E6
738 737 -1.12715068E6
738 738 2.25180036E6
738 739 -1.12464968E6
739 738 -1.12715068E6
739 739 2.25180036E6
739 740 -1.12464968E6
740 739 -1.12715068E6
740 740 2.25180036E6
740 741 -1.12464968E6
741 740 -1.12715068E6
741 741 2.25180036E6
741 742 -1.12464968E6
742 741 -1.12715068E6
742 742 2.25180036E6
742 743 -1.12464968E6
743 742 -1.12715068E6
743 743 2.25180036E6
743 744 -1.12464968E6
744 743 -1.12715068E6
744 744 2.25180036E6
744 745 -1.12464968E6
745 744 -1.12715068E6
745 745 2.25180036E6
745 746 -1.12464968E6
746 745 -1.12715068E6
746 746 2.25180036E6
746 747 -1.12464968E6
747 746 -1.12715068E6
747 747 2.25180036E6
747 748 -1.12464968E6
748 747 -1.12715068E6
748 748 2.25180036E6
748 749 -1.12464968E6
749 748 -1.12715068E6
749 749 2.25180036E6
749 750 -1.12464968E6
750 749 -1.12715068E6
750 750 2.25180036E6
750 751 -1.12464968E6
751 750 -1.12715068E6
751 751 2.25180036E6
751 752 -1.12464968E6
752 751 -1.12715068E6
752 752 2.25180036E6
752 753 -1.12464968E6
753 752 -1.12715068E6
753 753 2.25180036E6
753 754 -1.12464968E6
754 753 -1.12715068E6
754 754 2.25180036E6
754 755 -1.12464968E6
755 754 -1.12715068E6
755 755 2.25180036E6
755 756 -1.12464968E6
756 755 -1.12715068E6
756 756 2.25180036E6
756 757 -1.12464968E6
757 756 -1.12715068E6
757 757 2.25180036E6
757 758 -1.12464968E6
758 757 -1.12715068E6
758 758 2.25180036E6
758 759 -1.12464968E6
759 758 -1.12715068E6
759 759 2.25180036E6
759 760 -1.12464968E6
760 759 -1.12715068E6
760 760 2.25180036E6
760 761 -1.12464968E6
761 760 -1.12715068E6
761 761 2.25180036E6
761 762 -1.12464968E6
762 761 -1.12715068E6
762 762 2.25180036E6
762 763 -1.12464968E6
763 762 -1.12715068E6
763 763 2.25180036E6
763 764 -1.12464968E6
764 763 -1.12715068E6
764 764 2.25180036E6
764 765 -1.12464968E6
765 764 -1.12715068E6
765 765 2.25180036E6
765 766 -1.12464968E6
766 765 -1.12715068E6
766 766 2.25180036E6
766 767 -1.12464968E6
767 766 -1.12715068E6
767 767 2.25180036E6
767 768 -1.12464968E6
768 767 -1.12715068E6
768 768 2.25180036E6
768 769 -1.12464968E6
769 768 -1.12715068E6
769 769 2.25180036E6
769 770 -1.12464968E6
770 769 -1.12715068E6
770 770 2.25180036E6
770 771 -1.12464968E6
771 770 -1.12715068E6
771 771 2.25180036E6
771 772 -1.12464968E6
772 771 -1.12715068E6
772 772 2.25180036E6
772 773 -1.12464968E6
773 772 -1.12715068E6
773 773 2.25180036E6
773 774 -1.12464968E6
774 773 -1.12715068E6
774 774 2.25180036E6
774 775 -1.12464968E6
775 774 -1.12715068E6
775 775 2.25180036E6
775 776 -1.12464968E6
776 775 -1.12715068E6
776 776 2.25180036E6
776 777 -1.12464968E6
777 776 -1.12715068E6
777 777 2.25180036E6
777 778 -1.12464968E6
778 777 -1.12715068E6
778 778 2.25180036E6
778 779 -1.12464968E6
779 778 -1.12715068E6
779 779 2.25180036E6
779 780 -1.12464968E6
780 779 -1.12715068E6
780 780 2.25180036E6
780 781 -1.12464968E6
781 780 -1.12715068E6
781 781 2.25180036E6
781 782 -1.12464968E6
782 781 -1.12715068E6
782 782 2.25180036E6
782 783 -1.12464968E6
783 782 -1.12715068E6
783 783 2.25180036E6
783 784 -1.12464968E6
784 783 -1.12715068E6
784 784 2.25180036E6
784 785 -1.12464968E6
785 784 -1.12715068E6
785 785 2.25180036E6
785 786 -1.12464968E6
786 785 -1.12715068E6
786 786 2.25180036E6
786 787 -1.12464968E6
787 786 -1.12715068E6
787 787 2.25180036E6
787 788 -1.12464968E6
788 787 -1.12715068E6
788 788 2.25180036E6
788 789 -1.12464968E6
789 788 -1.12715068E6
789 789 2.25180036E6
789 790 -1.12464968E6
790 789 -1.12715068E6
790 790 2.25180036E6
790 791 -1.12464968E6
791 790 -1.12715068E6
791 791 2.25180036E6
791 792 -1.12464968E6
792 791 -1.12715068E6
792 792 2.25180036E6
792 793 -1.12464968E6
793 792 -1.12715068E6
793 793 2.25180036E6
793 794 -1.12464968E6
794 793 -1.12715068E6
794 794 2.25180036E6
794 795 -1.12464968E6
795 794 -1.12715068E6
795 795 2.25180036E6
795 796 -1.12464968E6
796 795 -1.12715068E6
796 796 2.25180036E6
796 797 -1.12464968E6
797 796 -1.12715068E6
797 797 2.25180036E6
797 798 -1.12464968E6
798 797 -1.12715068E6
798 798 2.25180036E6
798 799 -1.12464968E6
799 798 -1.12715068E6
799 799 2.25180036E6
799 800 -1.12464968E6
800 799 -1.12715068E6
800 800 2.25180036E6
800 801 -1.12464968E6
801 800 -1.12715068E6
801 801 2.25180036E6
801 802 -1.12464968E6
802 801 -1.12715068E6
802 802 2.25180036E6
802 803 -1.12464968E6
803 802 -1.12715068E6
803 803 2.25180036E6
803 804 -1.12464968E6
804 803 -1.12715068E6
804 804 2.25180036E6
804 805 -1.12464968E6
805 804 -1.12715068E6
805 805 2.25180036E6
805 806 -1.12464968E6
806 805 -1.12715068E6
806 806 2.25180036E6
806 807 -1.12464968E6
807 806 -1.12715068E6
807 807 2.25180036E6
807 808 -1.12464968E6
808 807 -1.12715068E6
808 808 2.25180036E6
808 809 -1.12464968E6
809 808 -1.12715068E6
809 809 2.25180036E6
809 810 -1.12464968E6
810 809 -1.12715068E6
810 810 2.25180036E6
810 811 -1.12464968E6
811 810 -1.12715068E6
811 811 2.25180036E6
811 812 -1.12464968E6
812 811 -1.12715068E6
812 812 2.25180036E6
812 813 -1.12464968E6
813 812 -1.12715068E6
813 813 2.25180036E6
813 814 -1.12464968E6
814 813 -1.12715068E6
814 814 2.25180036E6
814 815 -1.12464968E6
815 814 -1.12715068E6
815 815 2.25180036E6
815 816 -1.12464968E6
816 815 -1.12715068E6
816 816 2.25180036E6
816 817 -1.12464968E6
817 816 -1.12715068E6
817 817 2.25180036E6
817 818 -1.12464968E6
818 817 -1.12715068E6
818 818 2.25180036E6
818 819 -1.12464968E6
819 818 -1.12715068E6
819 819 2.25180036E6
819 820 -1.12464968E6
820 819 -1.12715068E6
820 820 2.25180036E6
820 821 -1.12464968E6
821 820 -1.12715068E6
821 821 2.25180036E6
821 822 -1.12464968E6
822 821 -1.12715068E6
822 822 2.25180036E6
822 823 -1.12464968E6
823 822 -1.12715068E6
823 823 2.25180036E6
823 824 -1.12464968E6
824 823 -1.12715068E6
824 824 2.25180036E6
824 825 -1.12464968E6
825 824 -1.12715068E6
825 825 2.25180036E6
825 826 -1.12464968E6
826 825 -1.12715068E6
826 826 2.25180036E6
826 827 -1.12464968E6
827 826 -1.12715068E6
827 827 2.25180036E6
827 828 -1.12464968E6
828 827 -1.12715068E6
828 828 2.25180036E6
828 829 -1.12464968E6
829 828 -1.12715068E6
829 829 2.25180036E6
829 830 -1.12464968E6
830 829 -1.12715068E6
830 830 2.25180036E6
830 831 -1.12464968E6
831 830 -1.12715068E6
831 831 2.25180036E6
831 832 -1.12464968E6
832 831 -1.12715068E6
832 832 2.25180036E6
832 833 -1.12464968E6
833 832 -1.12715068E6
833 833 2.25180036E6
833 834 -1.12464968E6
834 833 -1.12715068E6
834 834 2.25180036E6
834 835 -1.12464968E6
835 834 -1.12715068E6
835 835 2.25180036E6
835 836 -1.12464968E6
836 835 -1.12715068E6
836 836 2.25180036E6
836 837 -1.12464968E6
837 836 -1.12715068E6
837 837 2.25180036E6
837 838 -1.12464968E6
838 837 -1.12715068E6
838 838 2.25180036E6
838 839 -1.12464968E6
839 838 -1.12715068E6
839 839 2.25180036E6
839 840 -1.12464968E6
840 839 -1.12715068E6
840 840 2.25180036E6
840 841 -1.12464968E6
841 840 -1.12715068E6
841 841 2.25180036E6
841 842 -1.12464968E6
842 841 -1.12715068E6
842 842 2.25180036E6
842 843 -1.12464968E6
843 842 -1.12715068E6
843 843 2.25180036E6
843 844 -1.12464968E6
844 843 -1.12715068E6
844 844 2.25180036E6
844 845 -1.12464968E6
845 844 -1.12715068E6
845 845 2.25180036E6
845 846 -1.12464968E6
846 845 -1.12715068E6
846 846 2.25180036E6
846 847 -1.12464968E6
847 846 -1.12715068E6
847 847 2.25180036E6
847 848 -1.12464968E6
848 847 -1.12715068E6
848 848 2.25180036E6
848 849 -1.12464968E6
849 848 -1.12715068E6
849 849 2.25180036E6
849 850 -1.12464968E6
850 849 -1.12715068E6
850 850 2.25180036E6
850 851 -1.12464968E6
851 850 -1.12715068E6
851 851 2.25180036E6
851 852 -1.12464968E6
852 851 -1.12715068E6
852 852 2.25180036E6
852 853 -1.12464968E6
853 852 -1.12715068E6
853 853 2.25180036E6
853 854 -1.12464968E6
854 853 -1.12715068E6
854 854 2.25180036E6
854 855 -1.12464968E6
855 854 -1.12715068E6
855 855 2.25180036E6
855 856 -1.12464968E6
856 855 -1.12715068E6
856 856 2.25180036E6
856 857 -1.12464968E6
857 856 -1.12715068E6
857 857 2.25180036E6
857 858 -1.12464968E6
858 857 -1.12715068E6
858 858 2.25180036E6
858 859 -1.12464968E6
859 858 -1.12715068E6
859 859 2.25180036E6
859 860 -1.12464968E6
860 859 -1.12715068E6
860 860 2.25180036E6
860 861 -1.12464968E6
861 860 -1.12715068E6
861 861 2.25180036E6
861 862 -1.12464968E6
862 861 -1.12715068E6
862 862 2.25180036E6
862 863 -1.12464968E6
863 862 -1.12715068E6
863 863 2.25180036E6
863 864 -1.12464968E6
864 863 -1.12715068E6
864 864 2.25180036E6
864 865 -1.12464968E6
865 864 -1.12715068E6
865 865 2.25180036E6
865 866 -1.12464968E6
866 865 -1.12715068E6
866 866 2.25180036E6
866 867 -1.12464968E6
867 866 -1.12715068E6
867 867 2.25180036E6
867 868 -1.12464968E6
868 867 -1.12715068E6
868 868 2.25180036E6
868 869 -1.12464968E6
869 868 -1.12715068E6
869 869 2.25180036E6
869 870 -1.12464968E6
870 869 -1.12715068E6
870 870 2.25180036E6
870 871 -1.12464968E6
871 870 -1.12715068E6
871 871 2.25180036E6
871 872 -1.12464968E6
872 871 -1.12715068E6
872 872 2.25180036E6
872 873 -1.12464968E6
873 872 -1.12715068E6
873 873 2.25180036E6
873 874 -1.12464968E6
874 873 -1.12715068E6
874 874 2.25180036E6
874 875 -1.12464968E6
875 874 -1.12715068E6
875 875 2.25180036E6
875 876 -1.12464968E6
876 875 -1.12715068E6
876 876 2.25180036E6
876 877 -1.12464968E6
877 876 -1.12715068E6
877 877 2.25180036E6
877 878 -1.12464968E6
878 877 -1.12715068E6
878 878 2.25180036E6
878 879 -1.12464968E6
879 878 -1.12715068E6
879 879 2.25180036E6
879 880 -1.12464968E6
880 879 -1.12715068E6
880 880 2.25180036E6
880 881 -1.12464968E6
881 880 -1.12715068E6
881 881 2.25180036E6
881 882 -1.12464968E6
882 881 -1.12715068E6
882 882 2.25180036E6
882 883 -1.12464968E6
883 882 -1.12715068E6
883 883 2.25180036E6
883 884 -1.12464968E6
884 883 -1.12715068E6
884 884 2.25180036E6
884 885 -1.12464968E6
885 884 -1.12715068E6
885 885 2.25180036E6
885 886 -1.12464968E6
886 885 -1.12715068E6
886 886 2.25180036E6
886 887 -1.12464968E6
887 886 -1.12715068E6
887 887 2.25180036E6
887 888 -1.12464968E6
888 887 -1.12715068E6
888 888 2.25180036E6
888 889 -1.12464968E6
889 888 -1.12715068E6
889 889 2.25180036E6
889 890 -1.12464968E6
890 889 -1.12715068E6
890 890 2.25180036E6
890 891 -1.12464968E6
891 890 -1.12715068E6
891 891 2.25180036E6
891 892 -1.12464968E6
892 891 -1.12715068E6
892 892 2.25180036E6
892 893 -1.12464968E6
893 892 -1.12715068E6
893 893 2.25180036E6
893 894 -1.12464968E6
894 893 -1.12715068E6
894 894 2.25180036E6
894 895 -1.12464968E6
895 894 -1.12715068E6
895 895 2.25180036E6
895 896 -1.12464968E6
896 895 -1.12715068E6
896 896 2.25180036E6
896 897 -1.12464968E6
897 896 -1.12715068E6
897 897 2.25180036E6
897 898 -1.12464968E6
898 897 -1.12715068E6
898 898 2.25180036E6
898 899 -1.12464968E6
899 898 -1.12715068E6
899 899 2.25180036E6
899 900 -1.12464968E6
900 899 -1.12715068E6
900 900 2.25180036E6
900 901 -1.12464968E6
901 900 -1.12715068E6
901 901 2.25180036E6
901 902 -1.12464968E6
902 901 -1.12715068E6
902 902 2.25180036E6
902 903 -1.12464968E6
903 902 -1.12715068E6
903 903 2.25180036E6
903 904 -1.12464968E6
904 903 -1.12715068E6
904 904 2.25180036E6
904 905 -1.12464968E6
905 904 -1.12715068E6
905 905 2.25180036E6
905 906 -1.12464968E6
906 905 -1.12715068E6
906 906 2.25180036E6
906 907 -1.12464968E6
907 906 -1.12715068E6
907 907 2.25180036E6
907 908 -1.12464968E6
908 907 -1.12715068E6
908 908 2.25180036E6
908 909 -1.12464968E6
909 908 -1.12715068E6
909 909 2.25180036E6
909 910 -1.12464968E6
910 909 -1.12715068E6
910 910 2.25180036E6
910 911 -1.12464968E6
911 910 -1.12715068E6
911 911 2.25180036E6
911 912 -1.12464968E6
912 911 -1.12715068E6
912 912 2.25180036E6
912 913 -1.12464968E6
913 912 -1.12715068E6
913 913 2.25180036E6
913 914 -1.12464968E6
914 913 -1.12715068E6
914 914 2.25180036E6
914 915 -1.12464968E6
915 914 -1.12715068E6
915 915 2.25180036E6
915 916 -1.12464968E6
916 915 -1.12715068E6
916 916 2.25180036E6
916 917 -1.12464968E6
917 916 -1.12715068E6
917 917 2.25180036E6
917 918 -1.12464968E6
918 917 -1.12715068E6
918 918 2.25180036E6
918 919 -1.12464968E6
919 918 -1.12715068E6
919 919 2.25180036E6
919 920 -1.12464968E6
920 919 -1.12715068E6
920 920 2.25180036E6
920 921 -1.12464968E6
921 920 -1.12715068E6
921 921 2.25180036E6
921 922 -1.12464968E6
922 921 -1.12715068E6
922 922 2.25180036E6
922 923 -1.12464968E6
923 922 -1.12715068E6
923 923 2.25180036E6
923 924 -1.12464968E6
924 923 -1.12715068E6
924 924 2.25180036E6
924 925 -1.12464968E6
925 924 -1.12715068E6
925 925 2.25180036E6
925 926 -1.12464968E6
926 925 -1.12715068E6
926 926 2.25180036E6
926 927 -1.12464968E6
927 926 -1.12715068E6
927 927 2.25180036E6
927 928 -1.12464968E6
928 927 -1.12715068E6
928 928 2.25180036E6
928 929 -1.12464968E6
929 928 -1.12715068E6
929 929 2.25180036E6
929 930 -1.12464968E6
930 929 -1.12715068E6
930 930 2.25180036E6
930 931 -1.12464968E6
931 930 -1.12715068E6
931 931 2.25180036E6
931 932 -1.12464968E6
932 931 -1.12715068E6
932 932 2.25180036E6
932 933 -1.12464968E6
933 932 -1.12715068E6
933 933 2.25180036E6
933 934 -1.12464968E6
934 933 -1.12715068E6
934 934 2.25180036E6
934 935 -1.12464968E6
935 934 -1.12715068E6
935 935 2.25180036E6
935 936 -1.12464968E6
936 935 -1.12715068E6
936 936 2.25180036E6
936 937 -1.12464968E6
937 936 -1.12715068E6
937 937 2.25180036E6
937 938 -1.12464968E6
938 937 -1.12715068E6
938 938 2.25180036E6
938 939 -1.12464968E6
939 938 -1.12715068E6
939 939 2.25180036E6
939 940 -1.12464968E6
940 939 -1.12715068E6
940 940 2.25180036E6
940 941 -1.12464968E6
941 940 -1.12715068E6
941 941 2.25180036E6
941 942 -1.12464968E6
942 941 -1.12715068E6
942 942 2.25180036E6
942 943 -1.12464968E6
943 942 -1.12715068E6
943 943 2.25180036E6
943 944 -1.12464968E6
944 943 -1.12715068E6
944 944 2.25180036E6
944 945 -1.12464968E6
945 944 -1.12715068E6
945 945 2.25180036E6
945 946 -1.12464968E6
946 945 -1.12715068E6
946 946 2.25180036E6
946 947 -1.12464968E6
947 946 -1.12715068E6
947 947 2.25180036E6
947 948 -1.12464968E6
948 947 -1.12715068E6
948 948 2.25180036E6
948 949 -1.12464968E6
949 948 -1.12715068E6
949 949 2.25180036E6
949 950 -1.12464968E6
950 949 -1.12715068E6
950 950 2.25180036E6
950 951 -1.12464968E6
951 950 -1.12715068E6
951 951 2.25180036E6
951 952 -1.12464968E6
952 951 -1.12715068E6
952 952 2.25180036E6
952 953 -1.12464968E6
953 952 -1.12715068E6
953 953 2.25180036E6
953 954 -1.12464968E6
954 953 -1.12715068E6
954 954 2.25180036E6
954 955 -1.12464968E6
955 954 -1.12715068E6
955 955 2.25180036E6
955 956 -1.12464968E6
956 955 -1.12715068E6
956 956 2.25180036E6
956 957 -1.12464968E6
957 956 -1.12715068E6
957 957 2.25180036E6
957 958 -1.12464968E6
958 957 -1.12715068E6
958 958 2.25180036E6
958 959 -1.12464968E6
959 958 -1.12715068E6
959 959 2.25180036E6
959 960 -1.12464968E6
960 959 -1.12715068E6
960 960 2.25180036E6
960 961 -1.12464968E6
961 960 -1.12715068E6
961 961 2.25180036E6
961 962 -1.12464968E6
962 961 -1.12715068E6
962 962 2.25180036E6
962 963 -1.12464968E6
963 962 -1.12715068E6
963 963 2.25180036E6
963 964 -1.12464968E6
964 963 -1.12715068E6
964 964 2.25180036E6
964 965 -1.12464968E6
965 964 -1.12715068E6
965 965 2.25180036E6
965 966 -1.12464968E6
966 965 -1.12715068E6
966 966 2.25180036E6
966 967 -1.12464968E6
967 966 -1.12715068E6
967 967 2.25180036E6
967 968 -1.12464968E6
968 967 -1.12715068E6
968 968 2.25180036E6
968 969 -1.12464968E6
969 968 -1.12715068E6
969 969 2.25180036E6
969 970 -1.12464968E6
970 969 -1.12715068E6
970 970 2.25180036E6
970 971 -1.12464968E6
971 970 -1.12715068E6
971 971 2.25180036E6
971 972 -1.12464968E6
972 971 -1.12715068E6
972 972 2.25180036E6
972 973 -1.12464968E6
973 972 -1.12715068E6
973 973 2.25180036E6
973 974 -1.12464968E6
974 973 -1.12715068E6
974 974 2.25180036E6
974 975 -1.12464968E6
975 974 -1.12715068E6
975 975 2.25180036E6
975 976 -1.12464968E6
976 975 -1.12715068E6
976 976 2.25180036E6
976 977 -1.12464968E6
977 976 -1.12715068E6
977 977 2.25180036E6
977 978 -1.12464968E6
978 977 -1.12715068E6
978 978 2.25180036E6
978 979 -1.12464968E6
979 978 -1.12715068E6
979 979 2.25180036E6
979 980 -1.12464968E6
980 979 -1.12715068E6
980 980 2.25180036E6
980 981 -1.12464968E6
981 980 -1.12715068E6
981 981 2.25180036E6
981 982 -1.12464968E6
982 981 -1.12715068E6
982 982 2.25180036E6
982 983 -1.12464968E6
983 982 -1.12715068E6
983 983 2.25180036E6
983 984 -1.12464968E6
984 983 -1.12715068E6
984 984 2.25180036E6
984 985 -1.12464968E6
985 984 -1.12715068E6
985 985 2.25180036E6
985 986 -1.12464968E6
986 985 -1.12715068E6
986 986 2.25180036E6
986 987 -1.12464968E6
987 986 -1.12715068E6
987 987 2.25180036E6
987 988 -1.12464968E6
988 987 -1.12715068E6
988 988 2.25180036E6
988 989 -1.12464968E6
989 988 -1.12715068E6
989 989 2.25180036E6
989 990 -1.12464968E6
990 989 -1.12715068E6
990 990 2.25180036E6
990 991 -1.12464968E6
991 990 -1.12715068E6
991 991 2.25180036E6
991 992 -1.12464968E6
992 991 -1.12715068E6
992 992 2.25180036E6
992 993 -1.12464968E6
993 992 -1.12715068E6
993 993 2.25180036E6
993 994 -1.12464968E6
994 993 -1.12715068E6
994 994 2.25180036E6
994 995 -1.12464968E6
995 994 -1.12715068E6
995 995 2.25180036E6
995 996 -1.12464968E6
996 995 -1.12715068E6
996 996 2.25180036E6
996 997 -1.12464968E6
997 996 -1.12715068E6
997 997 2.25180036E6
997 998 -1.12464968E6
998 997 -1.12715068E6
998 998 2.25180036E6
998 999 -1.12464968E6
999 998 -1.12715068E6
999 999 2.25180036E6
999 1000 -1.12464968E6
1000 999 -1.12715068E6
1000 1000 2.25180036E6
1000 1001 -1.12464968E6
1001 1000 -1.12715068E6
1001 1001 2.25180036E6
1001 1002 -1.12464968E6
1002 1001 -1.12715068E6
1002 1002 2.25180036E6
1002 1003 -1.12464968E6
1003 1002 -1.12715068E6
1003 1003 2.25180036E6
1003 1004 -1.12464968E6
1004 1003 -1.12715068E6
1004 1004 2.25180036E6
1004 1005 -1.12464968E6
1005 1004 -1.12715068E6
1005 1005 2.25180036E6
1005 1006 -1.12464968E6
1006 1005 -1.12715068E6
1006 1006 2.25180036E6
1006 1007 -1.12464968E6
1007 1006 -1.12715068E6
1007 1007 2.25180036E6
1007 1008 -1.12464968E6
1008 1007 -1.12715068E6
1008 1008 2.25180036E6
1008 1009 -1.12464968E6
1009 1008 -1.12715068E6
1009 1009 2.25180036E6
1009 1010 -1.12464968E6
1010 1009 -1.12715068E6
1010 1010 2.25180036E6
1010 1011 -1.12464968E6
1011 1010 -1.12715068E6
1011 1011 2.25180036E6
1011 1012 -1.12464968E6
1012 1011 -1.12715068E6
1012 1012 2.25180036E6
1012 1013 -1.12464968E6
1013 1012 -1.12715068E6
1013 1013 2.25180036E6
1013 1014 -1.12464968E6
1014 1013 -1.12715068E6
1014 1014 2.25180036E6
1014 1015 -1.12464968E6
1015 1014 -1.12715068E6
1015 1015 2.25180036E6
1015 1016 -1.12464968E6
1016 1015 -1.12715068E6
1016 1016 2.25180036E6
1016 1017 -1.12464968E6
1017 1016 -1.12715068E6
1017 1017 2.25180036E6
1017 1018 -1.12464968E6
1018 1017 -1.12715068E6
1018 1018 2.25180036E6
1018 1019 -1.12464968E6
1019 1018 -1.12715068E6
1019 1019 2.25180036E6
1019 1020 -1.12464968E6
1020 1019 -1.12715068E6
1020 1020 2.25180036E6
1020 1021 -1.12464968E6
1021 1020 -1.12715068E6
1021 1021 2.25180036E6
1021 1022 -1.12464968E6
1022 1021 -1.12715068E6
1022 1022 2.25180036E6
1022 1023 -1.12464968E6
1023 1022 -1.12715068E6
1023 1023 2.25180036E6
1023 1024 -1.12464968E6
1024 1023 -1.12715068E6
1024 1024 2.25180036E6
1024 1025 -1.12464968E6
1025 1024 -1.12715068E6
1025 1025 2.25180036E6
1025 1026 -1.12464968E6
1026 1025 -1.12715068E6
1026 1026 2.25180036E6
1026 1027 -1.12464968E6
1027 1026 -1.12715068E6
1027 1027 2.25180036E6
1027 1028 -1.12464968E6
1028 1027 -1.12715068E6
1028 1028 2.25180036E6
1028 1029 -1.12464968E6
1029 1028 -1.12715068E6
1029 1029 2.25180036E6
1029 1030 -1.12464968E6
1030 1029 -1.12715068E6
1030 1030 2.25180036E6
1030 1031 -1.12464968E6
1031 1030 -1.12715068E6
1031 1031 2.25180036E6
1031 1032 -1.12464968E6
1032 1031 -1.12715068E6
1032 1032 2.25180036E6
1032 1033 -1.12464968E6
1033 1032 -1.12715068E6
1033 1033 2.25180036E6
1033 1034 -1.12464968E6
1034 1033 -1.12715068E6
1034 1034 2.25180036E6
1034 1035 -1.12464968E6
1035 1034 -1.12715068E6
1035 1035 2.25180036E6
1035 1036 -1.12464968E6
1036 1035 -1.12715068E6
1036 1036 2.25180036E6
1036 1037 -1.12464968E6
1037 1036 -1.12715068E6
1037 1037 2.25180036E6
1037 1038 -1.12464968E6
1038 1037 -1.12715068E6
1038 1038 2.25180036E6
1038 1039 -1.12464968E6
1039 1038 -1.12715068E6
1039 1039 2.25180036E6
1039 1040 -1.12464968E6
1040 1039 -1.12715068E6
1040 1040 2.25180036E6
1040 1041 -1.12464968E6
1041 1040 -1.12715068E6
1041 1041 2.25180036E6
1041 1042 -1.12464968E6
1042 1041 -1.12715068E6
1042 1042 2.25180036E6
1042 1043 -1.12464968E6
1043 1042 -1.12715068E6
1043 1043 2.25180036E6
1043 1044 -1.12464968E6
1044 1043 -1.12715068E6
1044 1044 2.25180036E6
1044 1045 -1.12464968E6
1045 1044 -1.12715068E6
1045 1045 2.25180036E6
1045 1046 -1.12464968E6
1046 1045 -1.12715068E6
1046 1046 2.25180036E6
1046 1047 -1.12464968E6
1047 1046 -1.12715068E6
1047 1047 2.25180036E6
1047 1048 -1.12464968E6
1048 1047 -1.12715068E6
1048 1048 2.25180036E6
1048 1049 -1.12464968E6
1049 1048 -1.12715068E6
1049 1049 2.25180036E6
1049 1050 -1.12464968E6
1050 1049 -1.12715068E6
1050 1050 2.25180036E6
1050 1051 -1.12464968E6
1051 1050 -1.12715068E6
1051 1051 2.25180036E6
1051 1052 -1.12464968E6
1052 1051 -1.12715068E6
1052 1052 2.25180036E6
1052 1053 -1.12464968E6
1053 1052 -1.12715068E6
1053 1053 2.25180036E6
1053 1054 -1.12464968E6
1054 1053 -1.12715068E6
1054 1054 2.25180036E6
1054 1055 -1.12464968E6
1055 1054 -1.12715068E6
1055 1055 2.25180036E6
1055 1056 -1.12464968E6
1056 1055 -1.12715068E6
1056 1056 2.25180036E6
1056 1057 -1.12464968E6
1057 1056 -1.12715068E6
1057 1057 2.25180036E6
1057 1058 -1.12464968E6
1058 1057 -1.12715068E6
1058 1058 2.25180036E6
1058 1059 -1.12464968E6
1059 1058 -1.12715068E6
1059 1059 2.25180036E6
1059 1060 -1.12464968E6
1060 1059 -1.12715068E6
1060 1060 2.25180036E6
1060 1061 -1.12464968E6
1061 1060 -1.12715068E6
1061 1061 2.25180036E6
1061 1062 -1.12464968E6
1062 1061 -1.12715068E6
1062 1062 2.25180036E6
1062 1063 -1.12464968E6
1063 1062 -1.12715068E6
1063 1063 2.25180036E6
1063 1064 -1.12464968E6
1064 1063 -1.12715068E6
1064 1064 2.25180036E6
1064 1065 -1.12464968E6
1065 1064 -1.12715068E6
1065 1065 2.25180036E6
1065 1066 -1.12464968E6
1066 1065 -1.12715068E6
1066 1066 2.25180036E6
1066 1067 -1.12464968E6
1067 1066 -1.12715068E6
1067 1067 2.25180036E6
1067 1068 -1.12464968E6
1068 1067 -1.12715068E6
1068 1068 2.25180036E6
1068 1069 -1.12464968E6
1069 1068 -1.12715068E6
1069 1069 2.25180036E6
1069 1070 -1.12464968E6
1070 1069 -1.12715068E6
1070 1070 2.25180036E6
1070 1071 -1.12464968E6
1071 1070 -1.12715068E6
1071 1071 2.25180036E6
1071 1072 -1.12464968E6
1072 1071 -1.12715068E6
1072 1072 2.25180036E6
1072 1073 -1.12464968E6
1073 1072 -1.12715068E6
1073 1073 2.25180036E6
1073 1074 -1.12464968E6
1074 1073 -1.12715068E6
1074 1074 2.25180036E6
1074 1075 -1.12464968E6
1075 1074 -1.12715068E6
1075 1075 2.25180036E6
1075 1076 -1.12464968E6
1076 1075 -1.12715068E6
1076 1076 2.25180036E6
1076 1077 -1.12464968E6
1077 1076 -1.12715068E6
1077 1077 2.25180036E6
1077 1078 -1.12464968E6
1078 1077 -1.12715068E6
1078 1078 2.25180036E6
1078 1079 -1.12464968E6
1079 1078 -1.12715068E6
1079 1079 2.25180036E6
1079 1080 -1.12464968E6
1080 1079 -1.12715068E6
1080 1080 2.25180036E6
1080 1081 -1.12464968E6
1081 1080 -1.12715068E6
1081 1081 2.25180036E6
1081 1082 -1.12464968E6
1082 1081 -1.12715068E6
1082 1082 2.25180036E6
1082 1083 -1.12464968E6
1083 1082 -1.12715068E6
1083 1083 2.25180036E6
1083 1084 -1.12464968E6
1084 1083 -1.12715068E6
1084 1084 2.25180036E6
1084 1085 -1.12464968E6
1085 1084 -1.12715068E6
1085 1085 2.25180036E6
1085 1086 -1.12464968E6
1086 1085 -1.12715068E6
1086 1086 2.25180036E6
1086 1087 -1.12464968E6
1087 1086 -1.12715068E6
1087 1087 2.25180036E6
1087 1088 -1.12464968E6
1088 1087 -1.12715068E6
1088 1088 2.25180036E6
1088 1089 -1.12464968E6
1089 1088 -1.12715068E6
1089 1089 2.25180036E6
1089 1090 -1.12464968E6
1090 1089 -1.12715068E6
1090 1090 2.25180036E6
1090 1091 -1.12464968E6
1091 1090 -1.12715068E6
1091 1091 2.25180036E6
1091 1092 -1.12464968E6
1092 1091 -1.12715068E6
1092 1092 2.25180036E6
1092 1093 -1.12464968E6
1093 1092 -1.12715068E6
1093 1093 2.25180036E6
1093 1094 -1.12464968E6
1094 1093 -1.12715068E6
1094 1094 2.25180036E6
1094 1095 -1.12464968E6
1095 1094 -1.12715068E6
1095 1095 2.25180036E6
1095 1096 -1.12464968E6
1096 1095 -1.12715068E6
1096 1096 2.25180036E6
1096 1097 -1.12464968E6
1097 1096 -1.12715068E6
1097 1097 2.25180036E6
1097 1098 -1.12464968E6
1098 1097 -1.12715068E6
1098 1098 2.25180036E6
1098 1099 -1.12464968E6
1099 1098 -1.12715068E6
1099 1099 2.25180036E6
1099 1100 -1.12464968E6
1100 1099 -1.12715068E6
1100 1100 2.25180036E6
1100 1101 -1.12464968E6
1101 1100 -1.12715068E6
1101 1101 2.25180036E6
1101 1102 -1.12464968E6
1102 1101 -1.12715068E6
1102 1102 2.25180036E6
1102 1103 -1.12464968E6
1103 1102 -1.12715068E6
1103 1103 2.25180036E6
1103 1104 -1.12464968E6
1104 1103 -1.12715068E6
1104 1104 2.25180036E6
1104 1105 -1.12464968E6
1105 1104 -1.12715068E6
1105 1105 2.25180036E6
1105 1106 -1.12464968E6
1106 1105 -1.12715068E6
1106 1106 2.25180036E6
1106 1107 -1.12464968E6
1107 1106 -1.12715068E6
1107 1107 2.25180036E6
1107 1108 -1.12464968E6
1108 1107 -1.12715068E6
1108 1108 2.25180036E6
1108 1109 -1.12464968E6
1109 1108 -1.12715068E6
1109 1109 2.25180036E6
1109 1110 -1.12464968E6
1110 1109 -1.12715068E6
1110 1110 2.25180036E6
1110 1111 -1.12464968E6
1111 1110 -1.12715068E6
1111 1111 2.25180036E6
1111 1112 -1.12464968E6
1112 1111 -1.12715068E6
1112 1112 2.25180036E6
1112 1113 -1.12464968E6
1113 1112 -1.12715068E6
1113 1113 2.25180036E6
1113 1114 -1.12464968E6
1114 1113 -1.12715068E6
1114 1114 2.25180036E6
1114 1115 -1.12464968E6
1115 1114 -1.12715068E6
1115 1115 2.25180036E6
1115 1116 -1.12464968E6
1116 1115 -1.12715068E6
1116 1116 2.25180036E6
1116 1117 -1.12464968E6
1117 1116 -1.12715068E6
1117 1117 2.25180036E6
1117 1118 -1.12464968E6
1118 1117 -1.12715068E6
1118 1118 2.25180036E6
1118 1119 -1.12464968E6
1119 1118 -1.12715068E6
1119 1119 2.25180036E6
1119 1120 -1.12464968E6
1120 1119 -1.12715068E6
1120 1120 2.25180036E6
1120 1121 -1.12464968E6
1121 1120 -1.12715068E6
1121 1121 2.25180036E6
1121 1122 -1.12464968E6
1122 1121 -1.12715068E6
1122 1122 2.25180036E6
1122 1123 -1.12464968E6
1123 1122 -1.12715068E6
1123 1123 2.25180036E6
1123 1124 -1.12464968E6
1124 1123 -1.12715068E6
1124 1124 2.25180036E6
1124 1125 -1.12464968E6
1125 1124 -1.12715068E6
1125 1125 2.25180036E6
1125 1126 -1.12464968E6
1126 1125 -1.12715068E6
1126 1126 2.25180036E6
1126 1127 -1.12464968E6
1127 1126 -1.12715068E6
1127 1127 2.25180036E6
1127 1128 -1.12464968E6
1128 1127 -1.12715068E6
1128 1128 2.25180036E6
1128 1129 -1.12464968E6
1129 1128 -1.12715068E6
1129 1129 2.25180036E6
1129 1130 -1.12464968E6
1130 1129 -1.12715068E6
1130 1130 2.25180036E6
1130 1131 -1.12464968E6
1131 1130 -1.12715068E6
1131 1131 2.25180036E6
1131 1132 -1.12464968E6
1132 1131 -1.12715068E6
1132 1132 2.25180036E6
1132 1133 -1.12464968E6
1133 1132 -1.12715068E6
1133 1133 2.25180036E6
1133 1134 -1.12464968E6
1134 1133 -1.12715068E6
1134 1134 2.25180036E6
1134 1135 -1.12464968E6
1135 1134 -1.12715068E6
1135 1135 2.25180036E6
1135 1136 -1.12464968E6
1136 1135 -1.12715068E6
1136 1136 2.25180036E6
1136 1137 -1.12464968E6
1137 1136 -1.12715068E6
1137 1137 2.25180036E6
1137 1138 -1.12464968E6
1138 1137 -1.12715068E6
1138 1138 2.25180036E6
1138 1139 -1.12464968E6
1139 1138 -1.12715068E6
1139 1139 2.25180036E6
1139 1140 -1.12464968E6
1140 1139 -1.12715068E6
1140 1140 2.25180036E6
1140 1141 -1.12464968E6
1141 1140 -1.12715068E6
1141 1141 2.25180036E6
1141 1142 -1.12464968E6
1142 1141 -1.12715068E6
1142 1142 2.25180036E6
1142 1143 -1.12464968E6
1143 1142 -1.12715068E6
1143 1143 2.25180036E6
1143 1144 -1.12464968E6
1144 1143 -1.12715068E6
1144 1144 2.25180036E6
1144 1145 -1.12464968E6
1145 1144 -1.12715068E6
1145 1145 2.25180036E6
1145 1146 -1.12464968E6
1146 1145 -1.12715068E6
1146 1146 2.25180036E6
1146 1147 -1.12464968E6
1147 1146 -1.12715068E6
1147 1147 2.25180036E6
1147 1148 -1.12464968E6
1148 1147 -1.12715068E6
1148 1148 2.25180036E6
1148 1149 -1.12464968E6
1149 1148 -1.12715068E6
1149 1149 2.25180036E6
1149 1150 -1.12464968E6
1150 1149 -1.12715068E6
1150 1150 2.25180036E6
1150 1151 -1.12464968E6
1151 1150 -1.12715068E6
1151 1151 2.25180036E6
1151 1152 -1.12464968E6
1152 1151 -1.12715068E6
1152 1152 2.25180036E6
1152 1153 -1.12464968E6
1153 1152 -1.12715068E6
1153 1153 2.25180036E6
1153 1154 -1.12464968E6
1154 1153 -1.12715068E6
1154 1154 2.25180036E6
1154 1155 -1.12464968E6
1155 1154 -1.12715068E6
1155 1155 2.25180036E6
1155 1156 -1.12464968E6
1156 1155 -1.12715068E6
1156 1156 2.25180036E6
1156 1157 -1.12464968E6
1157 1156 -1.12715068E6
1157 1157 2.25180036E6
1157 1158 -1.12464968E6
1158 1157 -1.12715068E6
1158 1158 2.25180036E6
1158 1159 -1.12464968E6
1159 1158 -1.12715068E6
1159 1159 2.25180036E6
1159 1160 -1.12464968E6
1160 1159 -1.12715068E6
1160 1160 2.25180036E6
1160 1161 -1.12464968E6
1161 1160 -1.12715068E6
1161 1161 2.25180036E6
1161 1162 -1.12464968E6
1162 1161 -1.12715068E6
1162 1162 2.25180036E6
1162 1163 -1.12464968E6
1163 1162 -1.12715068E6
1163 1163 2.25180036E6
1163 1164 -1.12464968E6
1164 1163 -1.12715068E6
1164 1164 2.25180036E6
1164 1165 -1.12464968E6
1165 1164 -1.12715068E6
1165 1165 2.25180036E6
1165 1166 -1.12464968E6
1166 1165 -1.12715068E6
1166 1166 2.25180036E6
1166 1167 -1.12464968E6
1167 1166 -1.12715068E6
1167 1167 2.25180036E6
1167 1168 -1.12464968E6
1168 1167 -1.12715068E6
1168 1168 2.25180036E6
1168 1169 -1.12464968E6
1169 1168 -1.12715068E6
1169 1169 2.25180036E6
1169 1170 -1.12464968E6
1170 1169 -1.12715068E6
1170 1170 2.25180036E6
1170 1171 -1.12464968E6
1171 1170 -1.12715068E6
1171 1171 2.25180036E6
1171 1172 -1.12464968E6
1172 1171 -1.12715068E6
1172 1172 2.25180036E6
1172 1173 -1.12464968E6
1173 1172 -1.12715068E6
1173 1173 2.25180036E6
1173 1174 -1.12464968E6
1174 1173 -1.12715068E6
1174 1174 2.25180036E6
1174 1175 -1.12464968E6
1175 1174 -1.12715068E6
1175 1175 2.25180036E6
1175 1176 -1.12464968E6
1176 1175 -1.12715068E6
1176 1176 2.25180036E6
1176 1177 -1.12464968E6
1177 1176 -1.12715068E6
1177 1177 2.25180036E6
1177 1178 -1.12464968E6
1178 1177 -1.12715068E6
1178 1178 2.25180036E6
1178 1179 -1.12464968E6
1179 1178 -1.12715068E6
1179 1179 2.25180036E6
1179 1180 -1.12464968E6
1180 1179 -1.12715068E6
1180 1180 2.25180036E6
1180 1181 -1.12464968E6
1181 1180 -1.12715068E6
1181 1181 2.25180036E6
1181 1182 -1.12464968E6
1182 1181 -1.12715068E6
1182 1182 2.25180036E6
1182 1183 -1.12464968E6
1183 1182 -1.12715068E6
1183 1183 2.25180036E6
1183 1184 -1.12464968E6
1184 1183 -1.12715068E6
1184 1184 2.25180036E6
1184 1185 -1.12464968E6
1185 1184 -1.12715068E6
1185 1185 2.25180036E6
1185 1186 -1.12464968E6
1186 1185 -1.12715068E6
1186 1186 2.25180036E6
1186 1187 -1.12464968E6
1187 1186 -1.12715068E6
1187 1187 2.25180036E6
1187 1188 -1.12464968E6
1188 1187 -1.12715068E6
1188 1188 2.25180036E6
1188 1189 -1.12464968E6
1189 1188 -1.12715068E6
1189 1189 2.25180036E6
1189 1190 -1.12464968E6
1190 1189 -1.12715068E6
1190 1190 2.25180036E6
1190 1191 -1.12464968E6
1191 1190 -1.12715068E6
1191 1191 2.25180036E6
1191 1192 -1.12464968E6
1192 1191 -1.12715068E6
1192 1192 2.25180036E6
1192 1193 -1.12464968E6
1193 1192 -1.12715068E6
1193 1193 2.25180036E6
1193 1194 -1.12464968E6
1194 1193 -1.12715068E6
1194 1194 2.25180036E6
1194 1195 -1.12464968E6
1195 1194 -1.12715068E6
1195 1195 2.25180036E6
1195 1196 -1.12464968E6
1196 1195 -1.12715068E6
1196 1196 2.25180036E6
1196 1197 -1.12464968E6
1197 1196 -1.12715068E6
1197 1197 2.25180036E6
1197 1198 -1.12464968E6
1198 1197 -1.12715068E6
1198 1198 2.25180036E6
1198 1199 -1.12464968E6
1199 1198 -1.12715068E6
1199 1199 2.25180036E6
1199 1200 -1.12464968E6
1200 1199 -1.12715068E6
1200 1200 2.25180036E6
1200 1201 -1.12464968E6
1201 1200 -1.12715068E6
1201 1201 2.25180036E6
1201 1202 -1.12464968E6
1202 1201 -1.12715068E6
1202 1202 2.25180036E6
1202 1203 -1.12464968E6
1203 1202 -1.12715068E6
1203 1203 2.25180036E6
1203 1204 -1.12464968E6
1204 1203 -1.12715068E6
1204 1204 2.25180036E6
1204 1205 -1.12464968E6
1205 1204 -1.12715068E6
1205 1205 2.25180036E6
1205 1206 -1.12464968E6
1206 1205 -1.12715068E6
1206 1206 2.25180036E6
1206 1207 -1.12464968E6
1207 1206 -1.12715068E6
1207 1207 2.25180036E6
1207 1208 -1.12464968E6
1208 1207 -1.12715068E6
1208 1208 2.25180036E6
1208 1209 -1.12464968E6
1209 1208 -1.12715068E6
1209 1209 2.25180036E6
1209 1210 -1.12464968E6
1210 1209 -1.12715068E6
1210 1210 2.25180036E6
1210 1211 -1.12464968E6
1211 1210 -1.12715068E6
1211 1211 2.25180036E6
1211 1212 -1.12464968E6
1212 1211 -1.12715068E6
1212 1212 2.25180036E6
1212 1213 -1.12464968E6
1213 1212 -1.12715068E6
1213 1213 2.25180036E6
1213 1214 -1.12464968E6
1214 1213 -1.12715068E6
1214 1214 2.25180036E6
1214 1215 -1.12464968E6
1215 1214 -1.12715068E6
1215 1215 2.25180036E6
1215 1216 -1.12464968E6
1216 1215 -1.12715068E6
1216 1216 2.25180036E6
1216 1217 -1.12464968E6
1217 1216 -1.12715068E6
1217 1217 2.25180036E6
1217 1218 -1.12464968E6
1218 1217 -1.12715068E6
1218 1218 2.25180036E6
1218 1219 -1.12464968E6
1219 1218 -1.12715068E6
1219 1219 2.25180036E6
1219 1220 -1.12464968E6
1220 1219 -1.12715068E6
1220 1220 2.25180036E6
1220 1221 -1.12464968E6
1221 1220 -1.12715068E6
1221 1221 2.25180036E6
1221 1222 -1.12464968E6
1222 1221 -1.12715068E6
1222 1222 2.25180036E6
1222 1223 -1.12464968E6
1223 1222 -1.12715068E6
1223 1223 2.25180036E6
1223 1224 -1.12464968E6
1224 1223 -1.12715068E6
1224 1224 2.25180036E6
1224 1225 -1.12464968E6
1225 1224 -1.12715068E6
1225 1225 2.25180036E6
1225 1226 -1.12464968E6
1226 1225 -1.12715068E6
1226 1226 2.25180036E6
1226 1227 -1.12464968E6
1227 1226 -1.12715068E6
1227 1227 2.25180036E6
1227 1228 -1.12464968E6
1228 1227 -1.12715068E6
1228 1228 2.25180036E6
1228 1229 -1.12464968E6
1229 1228 -1.12715068E6
1229 1229 2.25180036E6
1229 1230 -1.12464968E6
1230 1229 -1.12715068E6
1230 1230 2.25180036E6
1230 1231 -1.12464968E6
1231 1230 -1.12715068E6
1231 1231 2.25180036E6
1231 1232 -1.12464968E6
1232 1231 -1.12715068E6
1232 1232 2.25180036E6
1232 1233 -1.12464968E6
1233 1232 -1.12715068E6
1233 1233 2.25180036E6
1233 1234 -1.12464968E6
1234 1233 -1.12715068E6
1234 1234 2.25180036E6
1234 1235 -1.12464968E6
1235 1234 -1.12715068E6
1235 1235 2.25180036E6
1235 1236 -1.12464968E6
1236 1235 -1.12715068E6
1236 1236 2.25180036E6
1236 1237 -1.12464968E6
1237 1236 -1.12715068E6
1237 1237 2.25180036E6
1237 1238 -1.12464968E6
1238 1237 -1.12715068E6
1238 1238 2.25180036E6
1238 1239 -1.12464968E6
1239 1238 -1.12715068E6
1239 1239 2.25180036E6
1239 1240 -1.12464968E6
1240 1239 -1.12715068E6
1240 1240 2.25180036E6
1240 1241 -1.12464968E6
1241 1240 -1.12715068E6
1241 1241 2.25180036E6
1241 1242 -1.12464968E6
1242 1241 -1.12715068E6
1242 1242 2.25180036E6
1242 1243 -1.12464968E6
1243 1242 -1.12715068E6
1243 1243 2.25180036E6
1243 1244 -1.12464968E6
1244 1243 -1.12715068E6
1244 1244 2.25180036E6
1244 1245 -1.12464968E6
1245 1244 -1.12715068E6
1245 1245 2.25180036E6
1245 1246 -1.12464968E6
1246 1245 -1.12715068E6
1246 1246 2.25180036E6
1246 1247 -1.12464968E6
1247 1246 -1.12715068E6
1247 1247 2.25180036E6
1247 1248 -1.12464968E6
1248 1247 -1.12715068E6
1248 1248 2.25180036E6
1248 1249 -1.12464968E6
1249 1248 -1.12715068E6
1249 1249 2.25180036E6
1249 1250 -1.12464968E6
1250 1249 -1.12715068E6
1250 1250 2.25180036E6
1250 1251 -1.12464968E6
1251 1250 -1.12715068E6
1251 1251 2.25180036E6
1251 1252 -1.12464968E6
1252 1251 -1.12715068E6
1252 1252 2.25180036E6
1252 1253 -1.12464968E6
1253 1252 -1.12715068E6
1253 1253 2.25180036E6
1253 1254 -1.12464968E6
1254 1253 -1.12715068E6
1254 1254 2.25180036E6
1254 1255 -1.12464968E6
1255 1254 -1.12715068E6
1255 1255 2.25180036E6
1255 1256 -1.12464968E6
1256 1255 -1.12715068E6
1256 1256 2.25180036E6
1256 1257 -1.12464968E6
1257 1256 -1.12715068E6
1257 1257 2.25180036E6
1257 1258 -1.12464968E6
1258 1257 -1.12715068E6
1258 1258 2.25180036E6
1258 1259 -1.12464968E6
1259 1258 -1.12715068E6
1259 1259 2.25180036E6
1259 1260 -1.12464968E6
1260 1259 -1.12715068E6
1260 1260 2.25180036E6
1260 1261 -1.12464968E6
1261 1260 -1.12715068E6
1261 1261 2.25180036E6
1261 1262 -1.12464968E6
1262 1261 -1.12715068E6
1262 1262 2.25180036E6
1262 1263 -1.12464968E6
1263 1262 -1.12715068E6
1263 1263 2.25180036E6
1263 1264 -1.12464968E6
1264 1263 -1.12715068E6
1264 1264 2.25180036E6
1264 1265 -1.12464968E6
1265 1264 -1.12715068E6
1265 1265 2.25180036E6
1265 1266 -1.12464968E6
1266 1265 -1.12715068E6
1266 1266 2.25180036E6
1266 1267 -1.12464968E6
1267 1266 -1.12715068E6
1267 1267 2.25180036E6
1267 1268 -1.12464968E6
1268 1267 -1.12715068E6
1268 1268 2.25180036E6
1268 1269 -1.12464968E6
1269 1268 -1.12715068E6
1269 1269 2.25180036E6
1269 1270 -1.12464968E6
1270 1269 -1.12715068E6
1270 1270 2.25180036E6
1270 1271 -1.12464968E6
1271 1270 -1.12715068E6
1271 1271 2.25180036E6
1271 1272 -1.12464968E6
1272 1271 -1.12715068E6
1272 1272 2.25180036E6
1272 1273 -1.12464968E6
1273 1272 -1.12715068E6
1273 1273 2.25180036E6
1273 1274 -1.12464968E6
1274 1273 -1.12715068E6
1274 1274 2.25180036E6
1274 1275 -1.12464968E6
1275 1274 -1.12715068E6
1275 1275 2.25180036E6
1275 1276 -1.12464968E6
1276 1275 -1.12715068E6
1276 1276 2.25180036E6
1276 1277 -1.12464968E6
1277 1276 -1.12715068E6
1277 1277 2.25180036E6
1277 1278 -1.12464968E6
1278 1277 -1.12715068E6
1278 1278 2.25180036E6
1278 1279 -1.12464968E6
1279 1278 -1.12715068E6
1279 1279 2.25180036E6
1279 1280 -1.12464968E6
1280 1279 -1.12715068E6
1280 1280 2.25180036E6
1280 1281 -1.12464968E6
1281 1280 -1.12715068E6
1281 1281 2.25180036E6
1281 1282 -1.12464968E6
1282 1281 -1.12715068E6
1282 1282 2.25180036E6
1282 1283 -1.12464968E6
1283 1282 -1.12715068E6
1283 1283 2.25180036E6
1283 1284 -1.12464968E6
1284 1283 -1.12715068E6
1284 1284 2.25180036E6
1284 1285 -1.12464968E6
1285 1284 -1.12715068E6
1285 1285 2.25180036E6
1285 1286 -1.12464968E6
1286 1285 -1.12715068E6
1286 1286 2.25180036E6
1286 1287 -1.12464968E6
1287 1286 -1.12715068E6
1287 1287 2.25180036E6
1287 1288 -1.12464968E6
1288 1287 -1.12715068E6
1288 1288 2.25180036E6
1288 1289 -1.12464968E6
1289 1288 -1.12715068E6
1289 1289 2.25180036E6
1289 1290 -1.12464968E6
1290 1289 -1.12715068E6
1290 1290 2.25180036E6
1290 1291 -1.12464968E6
1291 1290 -1.12715068E6
1291 1291 2.25180036E6
1291 1292 -1.12464968E6
1292 1291 -1.12715068E6
1292 1292 2.25180036E6
1292 1293 -1.12464968E6
1293 1292 -1.12715068E6
1293 1293 2.25180036E6
1293 1294 -1.12464968E6
1294 1293 -1.12715068E6
1294 1294 2.25180036E6
1294 1295 -1.12464968E6
1295 1294 -1.12715068E6
1295 1295 2.25180036E6
1295 1296 -1.12464968E6
1296 1295 -1.12715068E6
1296 1296 2.25180036E6
1296 1297 -1.12464968E6
1297 1296 -1.12715068E6
1297 1297 2.25180036E6
1297 1298 -1.12464968E6
1298 1297 -1.12715068E6
1298 1298 2.25180036E6
1298 1299 -1.12464968E6
1299 1298 -1.12715068E6
1299 1299 2.25180036E6
1299 1300 -1.12464968E6
1300 1299 -1.12715068E6
1300 1300 2.25180036E6
1300 1301 -1.12464968E6
1301 1300 -1.12715068E6
1301 1301 2.25180036E6
1301 1302 -1.12464968E6
1302 1301 -1.12715068E6
1302 1302 2.25180036E6
1302 1303 -1.12464968E6
1303 1302 -1.12715068E6
1303 1303 2.25180036E6
1303 1304 -1.12464968E6
1304 1303 -1.12715068E6
1304 1304 2.25180036E6
1304 1305 -1.12464968E6
1305 1304 -1.12715068E6
1305 1305 2.25180036E6
1305 1306 -1.12464968E6
1306 1305 -1.12715068E6
1306 1306 2.25180036E6
1306 1307 -1.12464968E6
1307 1306 -1.12715068E6
1307 1307 2.25180036E6
1307 1308 -1.12464968E6
1308 1307 -1.12715068E6
1308 1308 2.25180036E6
1308 1309 -1.12464968E6
1309 1308 -1.12715068E6
1309 1309 2.25180036E6
1309 1310 -1.12464968E6
1310 1309 -1.12715068E6
1310 1310 2.25180036E6
1310 1311 -1.12464968E6
1311 1310 -1.12715068E6
1311 1311 2.25180036E6
1311 1312 -1.12464968E6
1312 1311 -1.12715068E6
1312 1312 2.25180036E6
1312 1313 -1.12464968E6
1313 1312 -1.12715068E6
1313 1313 2.25180036E6
1313 1314 -1.12464968E6
1314 1313 -1.12715068E6
1314 1314 2.25180036E6
1314 1315 -1.12464968E6
1315 1314 -1.12715068E6
1315 1315 2.25180036E6
1315 1316 -1.12464968E6
1316 1315 -1.12715068E6
1316 1316 2.25180036E6
1316 1317 -1.12464968E6
1317 1316 -1.12715068E6
1317 1317 2.25180036E6
1317 1318 -1.12464968E6
1318 1317 -1.12715068E6
1318 1318 2.25180036E6
1318 1319 -1.12464968E6
1319 1318 -1.12715068E6
1319 1319 2.25180036E6
1319 1320 -1.12464968E6
1320 1319 -1.12715068E6
1320 1320 2.25180036E6
1320 1321 -1.12464968E6
1321 1320 -1.12715068E6
1321 1321 2.25180036E6
1321 1322 -1.12464968E6
1322 1321 -1.12715068E6
1322 1322 2.25180036E6
1322 1323 -1.12464968E6
1323 1322 -1.12715068E6
1323 1323 2.25180036E6
1323 1324 -1.12464968E6
1324 1323 -1.12715068E6
1324 1324 2.25180036E6
1324 1325 -1.12464968E6
1325 1324 -1.12715068E6
1325 1325 2.25180036E6
1325 1326 -1.12464968E6
1326 1325 -1.12715068E6
1326 1326 2.25180036E6
1326 1327 -1.12464968E6
1327 1326 -1.12715068E6
1327 1327 2.25180036E6
1327 1328 -1.12464968E6
1328 1327 -1.12715068E6
1328 1328 2.25180036E6
1328 1329 -1.12464968E6
1329 1328 -1.12715068E6
1329 1329 2.25180036E6
1329 1330 -1.12464968E6
1330 1329 -1.12715068E6
1330 1330 2.25180036E6
1330 1331 -1.12464968E6
1331 1330 -1.12715068E6
1331 1331 2.25180036E6
1331 1332 -1.12464968E6
1332 1331 -1.12715068E6
1332 1332 2.25180036E6
1332 1333 -1.12464968E6
1333 1332 -1.12715068E6
1333 1333 2.25180036E6
1333 1334 -1.12464968E6
1334 1333 -1.12715068E6
1334 1334 2.25180036E6
1334 1335 -1.12464968E6
1335 1334 -1.12715068E6
1335 1335 2.25180036E6
1335 1336 -1.12464968E6
1336 1335 -1.12715068E6
1336 1336 2.25180036E6
1336 1337 -1.12464968E6
1337 1336 -1.12715068E6
1337 1337 2.25180036E6
1337 1338 -1.12464968E6
1338 1337 -1.12715068E6
1338 1338 2.25180036E6
1338 1339 -1.12464968E6
1339 1338 -1.12715068E6
1339 1339 2.25180036E6
1339 1340 -1.12464968E6
1340 1339 -1.12715068E6
1340 1340 2.25180036E6
1340 1341 -1.12464968E6
1341 1340 -1.12715068E6
1341 1341 2.25180036E6
1341 1342 -1.12464968E6
1342 1341 -1.12715068E6
1342 1342 2.25180036E6
1342 1343 -1.12464968E6
1343 1342 -1.12715068E6
1343 1343 2.25180036E6
1343 1344 -1.12464968E6
1344 1343 -1.12715068E6
1344 1344 2.25180036E6
1344 1345 -1.12464968E6
1345 1344 -1.12715068E6
1345 1345 2.25180036E6
1345 1346 -1.12464968E6
1346 1345 -1.12715068E6
1346 1346 2.25180036E6
1346 1347 -1.12464968E6
1347 1346 -1.12715068E6
1347 1347 2.25180036E6
1347 1348 -1.12464968E6
1348 1347 -1.12715068E6
1348 1348 2.25180036E6
1348 1349 -1.12464968E6
1349 1348 -1.12715068E6
1349 1349 2.25180036E6
1349 1350 -1.12464968E6
1350 1349 -1.12715068E6
1350 1350 2.25180036E6
1350 1351 -1.12464968E6
1351 1350 -1.12715068E6
1351 1351 2.25180036E6
1351 1352 -1.12464968E6
1352 1351 -1.12715068E6
1352 1352 2.25180036E6
1352 1353 -1.12464968E6
1353 1352 -1.12715068E6
1353 1353 2.25180036E6
1353 1354 -1.12464968E6
1354 1353 -1.12715068E6
1354 1354 2.25180036E6
1354 1355 -1.12464968E6
1355 1354 -1.12715068E6
1355 1355 2.25180036E6
1355 1356 -1.12464968E6
1356 1355 -1.12715068E6
1356 1356 2.25180036E6
1356 1357 -1.12464968E6
1357 1356 -1.12715068E6
1357 1357 2.25180036E6
1357 1358 -1.12464968E6
1358 1357 -1.12715068E6
1358 1358 2.25180036E6
1358 1359 -1.12464968E6
1359 1358 -1.12715068E6
1359 1359 2.25180036E6
1359 1360 -1.12464968E6
1360 1359 -1.12715068E6
1360 1360 2.25180036E6
1360 1361 -1.12464968E6
1361 1360 -1.12715068E6
1361 1361 2.25180036E6
1361 1362 -1.12464968E6
1362 1361 -1.12715068E6
1362 1362 2.25180036E6
1362 1363 -1.12464968E6
1363 1362 -1.12715068E6
1363 1363 2.25180036E6
1363 1364 -1.12464968E6
1364 1363 -1.12715068E6
1364 1364 2.25180036E6
1364 1365 -1.12464968E6
1365 1364 -1.12715068E6
1365 1365 2.25180036E6
1365 1366 -1.12464968E6
1366 1365 -1.12715068E6
1366 1366 2.25180036E6
1366 1367 -1.12464968E6
1367 1366 -1.12715068E6
1367 1367 2.25180036E6
1367 1368 -1.12464968E6
1368 1367 -1.12715068E6
1368 1368 2.25180036E6
1368 1369 -1.12464968E6
1369 1368 -1.12715068E6
1369 1369 2.25180036E6
1369 1370 -1.12464968E6
1370 1369 -1.12715068E6
1370 1370 2.25180036E6
1370 1371 -1.12464968E6
1371 1370 -1.12715068E6
1371 1371 2.25180036E6
1371 1372 -1.12464968E6
1372 1371 -1.12715068E6
1372 1372 2.25180036E6
1372 1373 -1.12464968E6
1373 1372 -1.12715068E6
1373 1373 2.25180036E6
1373 1374 -1.12464968E6
1374 1373 -1.12715068E6
1374 1374 2.25180036E6
1374 1375 -1.12464968E6
1375 1374 -1.12715068E6
1375 1375 2.25180036E6
1375 1376 -1.12464968E6
1376 1375 -1.12715068E6
1376 1376 2.25180036E6
1376 1377 -1.12464968E6
1377 1376 -1.12715068E6
1377 1377 2.25180036E6
1377 1378 -1.12464968E6
1378 1377 -1.12715068E6
1378 1378 2.25180036E6
1378 1379 -1.12464968E6
1379 1378 -1.12715068E6
1379 1379 2.25180036E6
1379 1380 -1.12464968E6
1380 1379 -1.12715068E6
1380 1380 2.25180036E6
1380 1381 -1.12464968E6
1381 1380 -1.12715068E6
1381 1381 2.25180036E6
1381 1382 -1.12464968E6
1382 1381 -1.12715068E6
1382 1382 2.25180036E6
1382 1383 -1.12464968E6
1383 1382 -1.12715068E6
1383 1383 2.25180036E6
1383 1384 -1.12464968E6
1384 1383 -1.12715068E6
1384 1384 2.25180036E6
1384 1385 -1.12464968E6
1385 1384 -1.12715068E6
1385 1385 2.25180036E6
1385 1386 -1.12464968E6
1386 1385 -1.12715068E6
1386 1386 2.25180036E6
1386 1387 -1.12464968E6
1387 1386 -1.12715068E6
1387 1387 2.25180036E6
1387 1388 -1.12464968E6
1388 1387 -1.12715068E6
1388 1388 2.25180036E6
1388 1389 -1.12464968E6
1389 1388 -1.12715068E6
1389 1389 2.25180036E6
1389 1390 -1.12464968E6
1390 1389 -1.12715068E6
1390 1390 2.25180036E6
1390 1391 -1.12464968E6
1391 1390 -1.12715068E6
1391 1391 2.25180036E6
1391 1392 -1.12464968E6
1392 1391 -1.12715068E6
1392 1392 2.25180036E6
1392 1393 -1.12464968E6
1393 1392 -1.12715068E6
1393 1393 2.25180036E6
1393 1394 -1.12464968E6
1394 1393 -1.12715068E6
1394 1394 2.25180036E6
1394 1395 -1.12464968E6
1395 1394 -1.12715068E6
1395 1395 2.25180036E6
1395 1396 -1.12464968E6
1396 1395 -1.12715068E6
1396 1396 2.25180036E6
1396 1397 -1.12464968E6
1397 1396 -1.12715068E6
1397 1397 2.25180036E6
1397 1398 -1.12464968E6
1398 1397 -1.12715068E6
1398 1398 2.25180036E6
1398 1399 -1.12464968E6
1399 1398 -1.12715068E6
1399 1399 2.25180036E6
1399 1400 -1.12464968E6
1400 1399 -1.12715068E6
1400 1400 2.25180036E6
1400 1401 -1.12464968E6
1401 1400 -1.12715068E6
1401 1401 2.25180036E6
1401 1402 -1.12464968E6
1402 1401 -1.12715068E6
1402 1402 2.25180036E6
1402 1403 -1.12464968E6
1403 1402 -1.12715068E6
1403 1403 2.25180036E6
1403 1404 -1.12464968E6
1404 1403 -1.12715068E6
1404 1404 2.25180036E6
1404 1405 -1.12464968E6
1405 1404 -1.12715068E6
1405 1405 2.25180036E6
1405 1406 -1.12464968E6
1406 1405 -1.12715068E6
1406 1406 2.25180036E6
1406 1407 -1.12464968E6
1407 1406 -1.12715068E6
1407 1407 2.25180036E6
1407 1408 -1.12464968E6
1408 1407 -1.12715068E6
1408 1408 2.25180036E6
1408 1409 -1.12464968E6
1409 1408 -1.12715068E6
1409 1409 2.25180036E6
1409 1410 -1.12464968E6
1410 1409 -1.12715068E6
1410 1410 2.25180036E6
1410 1411 -1.12464968E6
1411 1410 -1.12715068E6
1411 1411 2.25180036E6
1411 1412 -1.12464968E6
1412 1411 -1.12715068E6
1412 1412 2.25180036E6
1412 1413 -1.12464968E6
1413 1412 -1.12715068E6
1413 1413 2.25180036E6
1413 1414 -1.12464968E6
1414 1413 -1.12715068E6
1414 1414 2.25180036E6
1414 1415 -1.12464968E6
1415 1414 -1.12715068E6
1415 1415 2.25180036E6
1415 1416 -1.12464968E6
1416 1415 -1.12715068E6
1416 1416 2.25180036E6
1416 1417 -1.12464968E6
1417 1416 -1.12715068E6
1417 1417 2.25180036E6
1417 1418 -1.12464968E6
1418 1417 -1.12715068E6
1418 1418 2.25180036E6
1418 1419 -1.12464968E6
1419 1418 -1.12715068E6
1419 1419 2.25180036E6
1419 1420 -1.12464968E6
1420 1419 -1.12715068E6
1420 1420 2.25180036E6
1420 1421 -1.12464968E6
1421 1420 -1.12715068E6
1421 1421 2.25180036E6
1421 1422 -1.12464968E6
1422 1421 -1.12715068E6
1422 1422 2.25180036E6
1422 1423 -1.12464968E6
1423 1422 -1.12715068E6
1423 1423 2.25180036E6
1423 1424 -1.12464968E6
1424 1423 -1.12715068E6
1424 1424 2.25180036E6
1424 1425 -1.12464968E6
1425 1424 -1.12715068E6
1425 1425 2.25180036E6
1425 1426 -1.12464968E6
1426 1425 -1.12715068E6
1426 1426 2.25180036E6
1426 1427 -1.12464968E6
1427 1426 -1.12715068E6
1427 1427 2.25180036E6
1427 1428 -1.12464968E6
1428 1427 -1.12715068E6
1428 1428 2.25180036E6
1428 1429 -1.12464968E6
1429 1428 -1.12715068E6
1429 1429 2.25180036E6
1429 1430 -1.12464968E6
1430 1429 -1.12715068E6
1430 1430 2.25180036E6
1430 1431 -1.12464968E6
1431 1430 -1.12715068E6
1431 1431 2.25180036E6
1431 1432 -1.12464968E6
1432 1431 -1.12715068E6
1432 1432 2.25180036E6
1432 1433 -1.12464968E6
1433 1432 -1.12715068E6
1433 1433 2.25180036E6
1433 1434 -1.12464968E6
1434 1433 -1.12715068E6
1434 1434 2.25180036E6
1434 1435 -1.12464968E6
1435 1434 -1.12715068E6
1435 1435 2.25180036E6
1435 1436 -1.12464968E6
1436 1435 -1.12715068E6
1436 1436 2.25180036E6
1436 1437 -1.12464968E6
1437 1436 -1.12715068E6
1437 1437 2.25180036E6
1437 1438 -1.12464968E6
1438 1437 -1.12715068E6
1438 1438 2.25180036E6
1438 1439 -1.12464968E6
1439 1438 -1.12715068E6
1439 1439 2.25180036E6
1439 1440 -1.12464968E6
1440 1439 -1.12715068E6
1440 1440 2.25180036E6
1440 1441 -1.12464968E6
1441 1440 -1.12715068E6
1441 1441 2.25180036E6
1441 1442 -1.12464968E6
1442 1441 -1.12715068E6
1442 1442 2.25180036E6
1442 1443 -1.12464968E6
1443 1442 -1.12715068E6
1443 1443 2.25180036E6
1443 1444 -1.12464968E6
1444 1443 -1.12715068E6
1444 1444 2.25180036E6
1444 1445 -1.12464968E6
1445 1444 -1.12715068E6
1445 1445 2.25180036E6
1445 1446 -1.12464968E6
1446 1445 -1.12715068E6
1446 1446 2.25180036E6
1446 1447 -1.12464968E6
1447 1446 -1.12715068E6
1447 1447 2.25180036E6
1447 1448 -1.12464968E6
1448 1447 -1.12715068E6
1448 1448 2.25180036E6
1448 1449 -1.12464968E6
1449 1448 -1.12715068E6
1449 1449 2.25180036E6
1449 1450 -1.12464968E6
1450 1449 -1.12715068E6
1450 1450 2.25180036E6
1450 1451 -1.12464968E6
1451 1450 -1.12715068E6
1451 1451 2.25180036E6
1451 1452 -1.12464968E6
1452 1451 -1.12715068E6
1452 1452 2.25180036E6
1452 1453 -1.12464968E6
1453 1452 -1.12715068E6
1453 1453 2.25180036E6
1453 1454 -1.12464968E6
1454 1453 -1.12715068E6
1454 1454 2.25180036E6
1454 1455 -1.12464968E6
1455 1454 -1.12715068E6
1455 1455 2.25180036E6
1455 1456 -1.12464968E6
1456 1455 -1.12715068E6
1456 1456 2.25180036E6
1456 1457 -1.12464968E6
1457 1456 -1.12715068E6
1457 1457 2.25180036E6
1457 1458 -1.12464968E6
1458 1457 -1.12715068E6
1458 1458 2.25180036E6
1458 1459 -1.12464968E6
1459 1458 -1.12715068E6
1459 1459 2.25180036E6
1459 1460 -1.12464968E6
1460 1459 -1.12715068E6
1460 1460 2.25180036E6
1460 1461 -1.12464968E6
1461 1460 -1.12715068E6
1461 1461 2.25180036E6
1461 1462 -1.12464968E6
1462 1461 -1.12715068E6
1462 1462 2.25180036E6
1462 1463 -1.12464968E6
1463 1462 -1.12715068E6
1463 1463 2.25180036E6
1463 1464 -1.12464968E6
1464 1463 -1.12715068E6
1464 1464 2.25180036E6
1464 1465 -1.12464968E6
1465 1464 -1.12715068E6
1465 1465 2.25180036E6
1465 1466 -1.12464968E6
1466 1465 -1.12715068E6
1466 1466 2.25180036E6
1466 1467 -1.12464968E6
1467 1466 -1.12715068E6
1467 1467 2.25180036E6
1467 1468 -1.12464968E6
1468 1467 -1.12715068E6
1468 1468 2.25180036E6
1468 1469 -1.12464968E6
1469 1468 -1.12715068E6
1469 1469 2.25180036E6
1469 1470 -1.12464968E6
1470 1469 -1.12715068E6
1470 1470 2.25180036E6
1470 1471 -1.12464968E6
1471 1470 -1.12715068E6
1471 1471 2.25180036E6
1471 1472 -1.12464968E6
1472 1471 -1.12715068E6
1472 1472 2.25180036E6
1472 1473 -1.12464968E6
1473 1472 -1.12715068E6
1473 1473 2.25180036E6
1473 1474 -1.12464968E6
1474 1473 -1.12715068E6
1474 1474 2.25180036E6
1474 1475 -1.12464968E6
1475 1474 -1.12715068E6
1475 1475 2.25180036E6
1475 1476 -1.12464968E6
1476 1475 -1.12715068E6
1476 1476 2.25180036E6
1476 1477 -1.12464968E6
1477 1476 -1.12715068E6
1477 1477 2.25180036E6
1477 1478 -1.12464968E6
1478 1477 -1.12715068E6
1478 1478 2.25180036E6
1478 1479 -1.12464968E6
1479 1478 -1.12715068E6
1479 1479 2.25180036E6
1479 1480 -1.12464968E6
1480 1479 -1.12715068E6
1480 1480 2.25180036E6
1480 1481 -1.12464968E6
1481 1480 -1.12715068E6
1481 1481 2.25180036E6
1481 1482 -1.12464968E6
1482 1481 -1.12715068E6
1482 1482 2.25180036E6
1482 1483 -1.12464968E6
1483 1482 -1.12715068E6
1483 1483 2.25180036E6
1483 1484 -1.12464968E6
1484 1483 -1.12715068E6
1484 1484 2.25180036E6
1484 1485 -1.12464968E6
1485 1484 -1.12715068E6
1485 1485 2.25180036E6
1485 1486 -1.12464968E6
1486 1485 -1.12715068E6
1486 1486 2.25180036E6
1486 1487 -1.12464968E6
1487 1486 -1.12715068E6
1487 1487 2.25180036E6
1487 1488 -1.12464968E6
1488 1487 -1.12715068E6
1488 1488 2.25180036E6
1488 1489 -1.12464968E6
1489 1488 -1.12715068E6
1489 1489 2.25180036E6
1489 1490 -1.12464968E6
1490 1489 -1.12715068E6
1490 1490 2.25180036E6
1490 1491 -1.12464968E6
1491 1490 -1.12715068E6
1491 1491 2.25180036E6
1491 1492 -1.12464968E6
1492 1491 -1.12715068E6
1492 1492 2.25180036E6
1492 1493 -1.12464968E6
1493 1492 -1.12715068E6
1493 1493 2.25180036E6
1493 1494 -1.12464968E6
1494 1493 -1.12715068E6
1494 1494 2.25180036E6
1494 1495 -1.12464968E6
1495 1494 -1.12715068E6
1495 1495 2.25180036E6
1495 1496 -1.12464968E6
1496 1495 -1.12715068E6
1496 1496 2.25180036E6
1496 1497 -1.12464968E6
1497 1496 -1.12715068E6
1497 1497 2.25180036E6
1497 1498 -1.12464968E6
1498 1497 -1.12715068E6
1498 1498 2.25180036E6
1498 1499 -1.12464968E6
1499 1498 -1.12715068E6
1499 1499 2.25180036E6
1499 1500 -1.12464968E6
1500 1499 -1.12715068E6
1500 1500 2.25180036E6
1500 1501 -1.12464968E6
1501 1500 -1.12715068E6
1501 1501 2.25180036E6
1501 1502 -1.12464968E6
1502 1501 -1.12715068E6
1502 1502 2.25180036E6
1502 1503 -1.12464968E6
1503 1502 -1.12715068E6
1503 1503 2.25180036E6
1503 1504 -1.12464968E6
1504 1503 -1.12715068E6
1504 1504 2.25180036E6
1504 1505 -1.12464968E6
1505 1504 -1.12715068E6
1505 1505 2.25180036E6
1505 1506 -1.12464968E6
1506 1505 -1.12715068E6
1506 1506 2.25180036E6
1506 1507 -1.12464968E6
1507 1506 -1.12715068E6
1507 1507 2.25180036E6
1507 1508 -1.12464968E6
1508 1507 -1.12715068E6
1508 1508 2.25180036E6
1508 1509 -1.12464968E6
1509 1508 -1.12715068E6
1509 1509 2.25180036E6
1509 1510 -1.12464968E6
1510 1509 -1.12715068E6
1510 1510 2.25180036E6
1510 1511 -1.12464968E6
1511 1510 -1.12715068E6
1511 1511 2.25180036E6
1511 1512 -1.12464968E6
1512 1511 -1.12715068E6
1512 1512 2.25180036E6
1512 1513 -1.12464968E6
1513 1512 -1.12715068E6
1513 1513 2.25180036E6
1513 1514 -1.12464968E6
1514 1513 -1.12715068E6
1514 1514 2.25180036E6
1514 1515 -1.12464968E6
1515 1514 -1.12715068E6
1515 1515 2.25180036E6
1515 1516 -1.12464968E6
1516 1515 -1.12715068E6
1516 1516 2.25180036E6
1516 1517 -1.12464968E6
1517 1516 -1.12715068E6
1517 1517 2.25180036E6
1517 1518 -1.12464968E6
1518 1517 -1.12715068E6
1518 1518 2.25180036E6
1518 1519 -1.12464968E6
1519 1518 -1.12715068E6
1519 1519 2.25180036E6
1519 1520 -1.12464968E6
1520 1519 -1.12715068E6
1520 1520 2.25180036E6
1520 1521 -1.12464968E6
1521 1520 -1.12715068E6
1521 1521 2.25180036E6
1521 1522 -1.12464968E6
1522 1521 -1.12715068E6
1522 1522 2.25180036E6
1522 1523 -1.12464968E6
1523 1522 -1.12715068E6
1523 1523 2.25180036E6
1523 1524 -1.12464968E6
1524 1523 -1.12715068E6
1524 1524 2.25180036E6
1524 1525 -1.12464968E6
1525 1524 -1.12715068E6
1525 1525 2.25180036E6
1525 1526 -1.12464968E6
1526 1525 -1.12715068E6
1526 1526 2.25180036E6
1526 1527 -1.12464968E6
1527 1526 -1.12715068E6
1527 1527 2.25180036E6
1527 1528 -1.12464968E6
1528 1527 -1.12715068E6
1528 1528 2.25180036E6
1528 1529 -1.12464968E6
1529 1528 -1.12715068E6
1529 1529 2.25180036E6
1529 1530 -1.12464968E6
1530 1529 -1.12715068E6
1530 1530 2.25180036E6
1530 1531 -1.12464968E6
1531 1530 -1.12715068E6
1531 1531 2.25180036E6
1531 1532 -1.12464968E6
1532 1531 -1.12715068E6
1532 1532 2.25180036E6
1532 1533 -1.12464968E6
1533 1532 -1.12715068E6
1533 1533 2.25180036E6
1533 1534 -1.12464968E6
1534 1533 -1.12715068E6
1534 1534 2.25180036E6
1534 1535 -1.12464968E6
1535 1534 -1.12715068E6
1535 1535 2.25180036E6
1535 1536 -1.12464968E6
1536 1535 -1.12715068E6
1536 1536 2.25180036E6
1536 1537 -1.12464968E6
1537 1536 -1.12715068E6
1537 1537 2.25180036E6
1537 1538 -1.12464968E6
1538 1537 -1.12715068E6
1538 1538 2.25180036E6
1538 1539 -1.12464968E6
1539 1538 -1.12715068E6
1539 1539 2.25180036E6
1539 1540 -1.12464968E6
1540 1539 -1.12715068E6
1540 1540 2.25180036E6
1540 1541 -1.12464968E6
1541 1540 -1.12715068E6
1541 1541 2.25180036E6
1541 1542 -1.12464968E6
1542 1541 -1.12715068E6
1542 1542 2.25180036E6
1542 1543 -1.12464968E6
1543 1542 -1.12715068E6
1543 1543 2.25180036E6
1543 1544 -1.12464968E6
1544 1543 -1.12715068E6
1544 1544 2.25180036E6
1544 1545 -1.12464968E6
1545 1544 -1.12715068E6
1545 1545 2.25180036E6
1545 1546 -1.12464968E6
1546 1545 -1.12715068E6
1546 1546 2.25180036E6
1546 1547 -1.12464968E6
1547 1546 -1.12715068E6
1547 1547 2.25180036E6
1547 1548 -1.12464968E6
1548 1547 -1.12715068E6
1548 1548 2.25180036E6
1548 1549 -1.12464968E6
1549 1548 -1.12715068E6
1549 1549 2.25180036E6
1549 1550 -1.12464968E6
1550 1549 -1.12715068E6
1550 1550 2.25180036E6
1550 1551 -1.12464968E6
1551 1550 -1.12715068E6
1551 1551 2.25180036E6
1551 1552 -1.12464968E6
1552 1551 -1.12715068E6
1552 1552 2.25180036E6
1552 1553 -1.12464968E6
1553 1552 -1.12715068E6
1553 1553 2.25180036E6
1553 1554 -1.12464968E6
1554 1553 -1.12715068E6
1554 1554 2.25180036E6
1554 1555 -1.12464968E6
1555 1554 -1.12715068E6
1555 1555 2.25180036E6
1555 1556 -1.12464968E6
1556 1555 -1.12715068E6
1556 1556 2.25180036E6
1556 1557 -1.12464968E6
1557 1556 -1.12715068E6
1557 1557 2.25180036E6
1557 1558 -1.12464968E6
1558 1557 -1.12715068E6
1558 1558 2.25180036E6
1558 1559 -1.12464968E6
1559 1558 -1.12715068E6
1559 1559 2.25180036E6
1559 1560 -1.12464968E6
1560 1559 -1.12715068E6
1560 1560 2.25180036E6
1560 1561 -1.12464968E6
1561 1560 -1.12715068E6
1561 1561 2.25180036E6
1561 1562 -1.12464968E6
1562 1561 -1.12715068E6
1562 1562 2.25180036E6
1562 1563 -1.12464968E6
1563 1562 -1.12715068E6
1563 1563 2.25180036E6
1563 1564 -1.12464968E6
1564 1563 -1.12715068E6
1564 1564 2.25180036E6
1564 1565 -1.12464968E6
1565 1564 -1.12715068E6
1565 1565 2.25180036E6
1565 1566 -1.12464968E6
1566 1565 -1.12715068E6
1566 1566 2.25180036E6
1566 1567 -1.12464968E6
1567 1566 -1.12715068E6
1567 1567 2.25180036E6
1567 1568 -1.12464968E6
1568 1567 -1.12715068E6
1568 1568 2.25180036E6
1568 1569 -1.12464968E6
1569 1568 -1.12715068E6
1569 1569 2.25180036E6
1569 1570 -1.12464968E6
1570 1569 -1.12715068E6
1570 1570 2.25180036E6
1570 1571 -1.12464968E6
1571 1570 -1.12715068E6
1571 1571 2.25180036E6
1571 1572 -1.12464968E6
1572 1571 -1.12715068E6
1572 1572 2.25180036E6
1572 1573 -1.12464968E6
1573 1572 -1.12715068E6
1573 1573 2.25180036E6
1573 1574 -1.12464968E6
1574 1573 -1.12715068E6
1574 1574 2.25180036E6
1574 1575 -1.12464968E6
1575 1574 -1.12715068E6
1575 1575 2.25180036E6
1575 1576 -1.12464968E6
1576 1575 -1.12715068E6
1576 1576 2.25180036E6
1576 1577 -1.12464968E6
1577 1576 -1.12715068E6
1577 1577 2.25180036E6
1577 1578 -1.12464968E6
1578 1577 -1.12715068E6
1578 1578 2.25180036E6
1578 1579 -1.12464968E6
1579 1578 -1.12715068E6
1579 1579 2.25180036E6
1579 1580 -1.12464968E6
1580 1579 -1.12715068E6
1580 1580 2.25180036E6
1580 1581 -1.12464968E6
1581 1580 -1.12715068E6
1581 1581 2.25180036E6
1581 1582 -1.12464968E6
1582 1581 -1.12715068E6
1582 1582 2.25180036E6
1582 1583 -1.12464968E6
1583 1582 -1.12715068E6
1583 1583 2.25180036E6
1583 1584 -1.12464968E6
1584 1583 -1.12715068E6
1584 1584 2.25180036E6
1584 1585 -1.12464968E6
1585 1584 -1.12715068E6
1585 1585 2.25180036E6
1585 1586 -1.12464968E6
1586 1585 -1.12715068E6
1586 1586 2.25180036E6
1586 1587 -1.12464968E6
1587 1586 -1.12715068E6
1587 1587 2.25180036E6
1587 1588 -1.12464968E6
1588 1587 -1.12715068E6
1588 1588 2.25180036E6
1588 1589 -1.12464968E6
1589 1588 -1.12715068E6
1589 1589 2.25180036E6
1589 1590 -1.12464968E6
1590 1589 -1.12715068E6
1590 1590 2.25180036E6
1590 1591 -1.12464968E6
1591 1590 -1.12715068E6
1591 1591 2.25180036E6
1591 1592 -1.12464968E6
1592 1591 -1.12715068E6
1592 1592 2.25180036E6
1592 1593 -1.12464968E6
1593 1592 -1.12715068E6
1593 1593 2.25180036E6
1593 1594 -1.12464968E6
1594 1593 -1.12715068E6
1594 1594 2.25180036E6
1594 1595 -1.12464968E6
1595 1594 -1.12715068E6
1595 1595 2.25180036E6
1595 1596 -1.12464968E6
1596 1595 -1.12715068E6
1596 1596 2.25180036E6
1596 1597 -1.12464968E6
1597 1596 -1.12715068E6
1597 1597 2.25180036E6
1597 1598 -1.12464968E6
1598 1597 -1.12715068E6
1598 1598 2.25180036E6
1598 1599 -1.12464968E6
1599 1598 -1.12715068E6
1599 1599 2.25180036E6
1599 1600 -1.12464968E6
1600 1599 -1.12715068E6
1600 1600 2.25180036E6
1600 1601 -1.12464968E6
1601 1600 -1.12715068E6
1601 1601 2.25180036E6
1601 1602 -1.12464968E6
1602 1601 -1.12715068E6
1602 1602 2.25180036E6
1602 1603 -1.12464968E6
1603 1602 -1.12715068E6
1603 1603 2.25180036E6
1603 1604 -1.12464968E6
1604 1603 -1.12715068E6
1604 1604 2.25180036E6
1604 1605 -1.12464968E6
1605 1604 -1.12715068E6
1605 1605 2.25180036E6
1605 1606 -1.12464968E6
1606 1605 -1.12715068E6
1606 1606 2.25180036E6
1606 1607 -1.12464968E6
1607 1606 -1.12715068E6
1607 1607 2.25180036E6
1607 1608 -1.12464968E6
1608 1607 -1.12715068E6
1608 1608 2.25180036E6
1608 1609 -1.12464968E6
1609 1608 -1.12715068E6
1609 1609 2.25180036E6
1609 1610 -1.12464968E6
1610 1609 -1.12715068E6
1610 1610 2.25180036E6
1610 1611 -1.12464968E6
1611 1610 -1.12715068E6
1611 1611 2.25180036E6
1611 1612 -1.12464968E6
1612 1611 -1.12715068E6
1612 1612 2.25180036E6
1612 1613 -1.12464968E6
1613 1612 -1.12715068E6
1613 1613 2.25180036E6
1613 1614 -1.12464968E6
1614 1613 -1.12715068E6
1614 1614 2.25180036E6
1614 1615 -1.12464968E6
1615 1614 -1.12715068E6
1615 1615 2.25180036E6
1615 1616 -1.12464968E6
1616 1615 -1.12715068E6
1616 1616 2.25180036E6
1616 1617 -1.12464968E6
1617 1616 -1.12715068E6
1617 1617 2.25180036E6
1617 1618 -1.12464968E6
1618 1617 -1.12715068E6
1618 1618 2.25180036E6
1618 1619 -1.12464968E6
1619 1618 -1.12715068E6
1619 1619 2.25180036E6
1619 1620 -1.12464968E6
1620 1619 -1.12715068E6
1620 1620 2.25180036E6
1620 1621 -1.12464968E6
1621 1620 -1.12715068E6
1621 1621 2.25180036E6
1621 1622 -1.12464968E6
1622 1621 -1.12715068E6
1622 1622 2.25180036E6
1622 1623 -1.12464968E6
1623 1622 -1.12715068E6
1623 1623 2.25180036E6
1623 1624 -1.12464968E6
1624 1623 -1.12715068E6
1624 1624 2.25180036E6
1624 1625 -1.12464968E6
1625 1624 -1.12715068E6
1625 1625 2.25180036E6
1625 1626 -1.12464968E6
1626 1625 -1.12715068E6
1626 1626 2.25180036E6
1626 1627 -1.12464968E6
1627 1626 -1.12715068E6
1627 1627 2.25180036E6
1627 1628 -1.12464968E6
1628 1627 -1.12715068E6
1628 1628 2.25180036E6
1628 1629 -1.12464968E6
1629 1628 -1.12715068E6
1629 1629 2.25180036E6
1629 1630 -1.12464968E6
1630 1629 -1.12715068E6
1630 1630 2.25180036E6
1630 1631 -1.12464968E6
1631 1630 -1.12715068E6
1631 1631 2.25180036E6
1631 1632 -1.12464968E6
1632 1631 -1.12715068E6
1632 1632 2.25180036E6
1632 1633 -1.12464968E6
1633 1632 -1.12715068E6
1633 1633 2.25180036E6
1633 1634 -1.12464968E6
1634 1633 -1.12715068E6
1634 1634 2.25180036E6
1634 1635 -1.12464968E6
1635 1634 -1.12715068E6
1635 1635 2.25180036E6
1635 1636 -1.12464968E6
1636 1635 -1.12715068E6
1636 1636 2.25180036E6
1636 1637 -1.12464968E6
1637 1636 -1.12715068E6
1637 1637 2.25180036E6
1637 1638 -1.12464968E6
1638 1637 -1.12715068E6
1638 1638 2.25180036E6
1638 1639 -1.12464968E6
1639 1638 -1.12715068E6
1639 1639 2.25180036E6
1639 1640 -1.12464968E6
1640 1639 -1.12715068E6
1640 1640 2.25180036E6
1640 1641 -1.12464968E6
1641 1640 -1.12715068E6
1641 1641 2.25180036E6
1641 1642 -1.12464968E6
1642 1641 -1.12715068E6
1642 1642 2.25180036E6
1642 1643 -1.12464968E6
1643 1642 -1.12715068E6
1643 1643 2.25180036E6
1643 1644 -1.12464968E6
1644 1643 -1.12715068E6
1644 1644 2.25180036E6
1644 1645 -1.12464968E6
1645 1644 -1.12715068E6
1645 1645 2.25180036E6
1645 1646 -1.12464968E6
1646 1645 -1.12715068E6
1646 1646 2.25180036E6
1646 1647 -1.12464968E6
1647 1646 -1.12715068E6
1647 1647 2.25180036E6
1647 1648 -1.12464968E6
1648 1647 -1.12715068E6
1648 1648 2.25180036E6
1648 1649 -1.12464968E6
1649 1648 -1.12715068E6
1649 1649 2.25180036E6
1649 1650 -1.12464968E6
1650 1649 -1.12715068E6
1650 1650 2.25180036E6
1650 1651 -1.12464968E6
1651 1650 -1.12715068E6
1651 1651 2.25180036E6
1651 1652 -1.12464968E6
1652 1651 -1.12715068E6
1652 1652 2.25180036E6
1652 1653 -1.12464968E6
1653 1652 -1.12715068E6
1653 1653 2.25180036E6
1653 1654 -1.12464968E6
1654 1653 -1.12715068E6
1654 1654 2.25180036E6
1654 1655 -1.12464968E6
1655 1654 -1.12715068E6
1655 1655 2.25180036E6
1655 1656 -1.12464968E6
1656 1655 -1.12715068E6
1656 1656 2.25180036E6
1656 1657 -1.12464968E6
1657 1656 -1.12715068E6
1657 1657 2.25180036E6
1657 1658 -1.12464968E6
1658 1657 -1.12715068E6
1658 1658 2.25180036E6
1658 1659 -1.12464968E6
1659 1658 -1.12715068E6
1659 1659 2.25180036E6
1659 1660 -1.12464968E6
1660 1659 -1.12715068E6
1660 1660 2.25180036E6
1660 1661 -1.12464968E6
1661 1660 -1.12715068E6
1661 1661 2.25180036E6
1661 1662 -1.12464968E6
1662 1661 -1.12715068E6
1662 1662 2.25180036E6
1662 1663 -1.12464968E6
1663 1662 -1.12715068E6
1663 1663 2.25180036E6
1663 1664 -1.12464968E6
1664 1663 -1.12715068E6
1664 1664 2.25180036E6
1664 1665 -1.12464968E6
1665 1664 -1.12715068E6
1665 1665 2.25180036E6
1665 1666 -1.12464968E6
1666 1665 -1.12715068E6
1666 1666 2.25180036E6
1666 1667 -1.12464968E6
1667 1666 -1.12715068E6
1667 1667 2.25180036E6
1667 1668 -1.12464968E6
1668 1667 -1.12715068E6
1668 1668 2.25180036E6
1668 1669 -1.12464968E6
1669 1668 -1.12715068E6
1669 1669 2.25180036E6
1669 1670 -1.12464968E6
1670 1669 -1.12715068E6
1670 1670 2.25180036E6
1670 1671 -1.12464968E6
1671 1670 -1.12715068E6
1671 1671 2.25180036E6
1671 1672 -1.12464968E6
1672 1671 -1.12715068E6
1672 1672 2.25180036E6
1672 1673 -1.12464968E6
1673 1672 -1.12715068E6
1673 1673 2.25180036E6
1673 1674 -1.12464968E6
1674 1673 -1.12715068E6
1674 1674 2.25180036E6
1674 1675 -1.12464968E6
1675 1674 -1.12715068E6
1675 1675 2.25180036E6
1675 1676 -1.12464968E6
1676 1675 -1.12715068E6
1676 1676 2.25180036E6
1676 1677 -1.12464968E6
1677 1676 -1.12715068E6
1677 1677 2.25180036E6
1677 1678 -1.12464968E6
1678 1677 -1.12715068E6
1678 1678 2.25180036E6
1678 1679 -1.12464968E6
1679 1678 -1.12715068E6
1679 1679 2.25180036E6
1679 1680 -1.12464968E6
1680 1679 -1.12715068E6
1680 1680 2.25180036E6
1680 1681 -1.12464968E6
1681 1680 -1.12715068E6
1681 1681 2.25180036E6
1681 1682 -1.12464968E6
1682 1681 -1.12715068E6
1682 1682 2.25180036E6
1682 1683 -1.12464968E6
1683 1682 -1.12715068E6
1683 1683 2.25180036E6
1683 1684 -1.12464968E6
1684 1683 -1.12715068E6
1684 1684 2.25180036E6
1684 1685 -1.12464968E6
1685 1684 -1.12715068E6
1685 1685 2.25180036E6
1685 1686 -1.12464968E6
1686 1685 -1.12715068E6
1686 1686 2.25180036E6
1686 1687 -1.12464968E6
1687 1686 -1.12715068E6
1687 1687 2.25180036E6
1687 1688 -1.12464968E6
1688 1687 -1.12715068E6
1688 1688 2.25180036E6
1688 1689 -1.12464968E6
1689 1688 -1.12715068E6
1689 1689 2.25180036E6
1689 1690 -1.12464968E6
1690 1689 -1.12715068E6
1690 1690 2.25180036E6
1690 1691 -1.12464968E6
1691 1690 -1.12715068E6
1691 1691 2.25180036E6
1691 1692 -1.12464968E6
1692 1691 -1.12715068E6
1692 1692 2.25180036E6
1692 1693 -1.12464968E6
1693 1692 -1.12715068E6
1693 1693 2.25180036E6
1693 1694 -1.12464968E6
1694 1693 -1.12715068E6
1694 1694 2.25180036E6
1694 1695 -1.12464968E6
1695 1694 -1.12715068E6
1695 1695 2.25180036E6
1695 1696 -1.12464968E6
1696 1695 -1.12715068E6
1696 1696 2.25180036E6
1696 1697 -1.12464968E6
1697 1696 -1.12715068E6
1697 1697 2.25180036E6
1697 1698 -1.12464968E6
1698 1697 -1.12715068E6
1698 1698 2.25180036E6
1698 1699 -1.12464968E6
1699 1698 -1.12715068E6
1699 1699 2.25180036E6
1699 1700 -1.12464968E6
1700 1699 -1.12715068E6
1700 1700 2.25180036E6
1700 1701 -1.12464968E6
1701 1700 -1.12715068E6
1701 1701 2.25180036E6
1701 1702 -1.12464968E6
1702 1701 -1.12715068E6
1702 1702 2.25180036E6
1702 1703 -1.12464968E6
1703 1702 -1.12715068E6
1703 1703 2.25180036E6
1703 1704 -1.12464968E6
1704 1703 -1.12715068E6
1704 1704 2.25180036E6
1704 1705 -1.12464968E6
1705 1704 -1.12715068E6
1705 1705 2.25180036E6
1705 1706 -1.12464968E6
1706 1705 -1.12715068E6
1706 1706 2.25180036E6
1706 1707 -1.12464968E6
1707 1706 -1.12715068E6
1707 1707 2.25180036E6
1707 1708 -1.12464968E6
1708 1707 -1.12715068E6
1708 1708 2.25180036E6
1708 1709 -1.12464968E6
1709 1708 -1.12715068E6
1709 1709 2.25180036E6
1709 1710 -1.12464968E6
1710 1709 -1.12715068E6
1710 1710 2.25180036E6
1710 1711 -1.12464968E6
1711 1710 -1.12715068E6
1711 1711 2.25180036E6
1711 1712 -1.12464968E6
1712 1711 -1.12715068E6
1712 1712 2.25180036E6
1712 1713 -1.12464968E6
1713 1712 -1.12715068E6
1713 1713 2.25180036E6
1713 1714 -1.12464968E6
1714 1713 -1.12715068E6
1714 1714 2.25180036E6
1714 1715 -1.12464968E6
1715 1714 -1.12715068E6
1715 1715 2.25180036E6
1715 1716 -1.12464968E6
1716 1715 -1.12715068E6
1716 1716 2.25180036E6
1716 1717 -1.12464968E6
1717 1716 -1.12715068E6
1717 1717 2.25180036E6
1717 1718 -1.12464968E6
1718 1717 -1.12715068E6
1718 1718 2.25180036E6
1718 1719 -1.12464968E6
1719 1718 -1.12715068E6
1719 1719 2.25180036E6
1719 1720 -1.12464968E6
1720 1719 -1.12715068E6
1720 1720 2.25180036E6
1720 1721 -1.12464968E6
1721 1720 -1.12715068E6
1721 1721 2.25180036E6
1721 1722 -1.12464968E6
1722 1721 -1.12715068E6
1722 1722 2.25180036E6
1722 1723 -1.12464968E6
1723 1722 -1.12715068E6
1723 1723 2.25180036E6
1723 1724 -1.12464968E6
1724 1723 -1.12715068E6
1724 1724 2.25180036E6
1724 1725 -1.12464968E6
1725 1724 -1.12715068E6
1725 1725 2.25180036E6
1725 1726 -1.12464968E6
1726 1725 -1.12715068E6
1726 1726 2.25180036E6
1726 1727 -1.12464968E6
1727 1726 -1.12715068E6
1727 1727 2.25180036E6
1727 1728 -1.12464968E6
1728 1727 -1.12715068E6
1728 1728 2.25180036E6
1728 1729 -1.12464968E6
1729 1728 -1.12715068E6
1729 1729 2.25180036E6
1729 1730 -1.12464968E6
1730 1729 -1.12715068E6
1730 1730 2.25180036E6
1730 1731 -1.12464968E6
1731 1730 -1.12715068E6
1731 1731 2.25180036E6
1731 1732 -1.12464968E6
1732 1731 -1.12715068E6
1732 1732 2.25180036E6
1732 1733 -1.12464968E6
1733 1732 -1.12715068E6
1733 1733 2.25180036E6
1733 1734 -1.12464968E6
1734 1733 -1.12715068E6
1734 1734 2.25180036E6
1734 1735 -1.12464968E6
1735 1734 -1.12715068E6
1735 1735 2.25180036E6
1735 1736 -1.12464968E6
1736 1735 -1.12715068E6
1736 1736 2.25180036E6
1736 1737 -1.12464968E6
1737 1736 -1.12715068E6
1737 1737 2.25180036E6
1737 1738 -1.12464968E6
1738 1737 -1.12715068E6
1738 1738 2.25180036E6
1738 1739 -1.12464968E6
1739 1738 -1.12715068E6
1739 1739 2.25180036E6
1739 1740 -1.12464968E6
1740 1739 -1.12715068E6
1740 1740 2.25180036E6
1740 1741 -1.12464968E6
1741 1740 -1.12715068E6
1741 1741 2.25180036E6
1741 1742 -1.12464968E6
1742 1741 -1.12715068E6
1742 1742 2.25180036E6
1742 1743 -1.12464968E6
1743 1742 -1.12715068E6
1743 1743 2.25180036E6
1743 1744 -1.12464968E6
1744 1743 -1.12715068E6
1744 1744 2.25180036E6
1744 1745 -1.12464968E6
1745 1744 -1.12715068E6
1745 1745 2.25180036E6
1745 1746 -1.12464968E6
1746 1745 -1.12715068E6
1746 1746 2.25180036E6
1746 1747 -1.12464968E6
1747 1746 -1.12715068E6
1747 1747 2.25180036E6
1747 1748 -1.12464968E6
1748 1747 -1.12715068E6
1748 1748 2.25180036E6
1748 1749 -1.12464968E6
1749 1748 -1.12715068E6
1749 1749 2.25180036E6
1749 1750 -1.12464968E6
1750 1749 -1.12715068E6
1750 1750 2.25180036E6
1750 1751 -1.12464968E6
1751 1750 -1.12715068E6
1751 1751 2.25180036E6
1751 1752 -1.12464968E6
1752 1751 -1.12715068E6
1752 1752 2.25180036E6
1752 1753 -1.12464968E6
1753 1752 -1.12715068E6
1753 1753 2.25180036E6
1753 1754 -1.12464968E6
1754 1753 -1.12715068E6
1754 1754 2.25180036E6
1754 1755 -1.12464968E6
1755 1754 -1.12715068E6
1755 1755 2.25180036E6
1755 1756 -1.12464968E6
1756 1755 -1.12715068E6
1756 1756 2.25180036E6
1756 1757 -1.12464968E6
1757 1756 -1.12715068E6
1757 1757 2.25180036E6
1757 1758 -1.12464968E6
1758 1757 -1.12715068E6
1758 1758 2.25180036E6
1758 1759 -1.12464968E6
1759 1758 -1.12715068E6
1759 1759 2.25180036E6
1759 1760 -1.12464968E6
1760 1759 -1.12715068E6
1760 1760 2.25180036E6
1760 1761 -1.12464968E6
1761 1760 -1.12715068E6
1761 1761 2.25180036E6
1761 1762 -1.12464968E6
1762 1761 -1.12715068E6
1762 1762 2.25180036E6
1762 1763 -1.12464968E6
1763 1762 -1.12715068E6
1763 1763 2.25180036E6
1763 1764 -1.12464968E6
1764 1763 -1.12715068E6
1764 1764 2.25180036E6
1764 1765 -1.12464968E6
1765 1764 -1.12715068E6
1765 1765 2.25180036E6
1765 1766 -1.12464968E6
1766 1765 -1.12715068E6
1766 1766 2.25180036E6
1766 1767 -1.12464968E6
1767 1766 -1.12715068E6
1767 1767 2.25180036E6
1767 1768 -1.12464968E6
1768 1767 -1.12715068E6
1768 1768 2.25180036E6
1768 1769 -1.12464968E6
1769 1768 -1.12715068E6
1769 1769 2.25180036E6
1769 1770 -1.12464968E6
1770 1769 -1.12715068E6
1770 1770 2.25180036E6
1770 1771 -1.12464968E6
1771 1770 -1.12715068E6
1771 1771 2.25180036E6
1771 1772 -1.12464968E6
1772 1771 -1.12715068E6
1772 1772 2.25180036E6
1772 1773 -1.12464968E6
1773 1772 -1.12715068E6
1773 1773 2.25180036E6
1773 1774 -1.12464968E6
1774 1773 -1.12715068E6
1774 1774 2.25180036E6
1774 1775 -1.12464968E6
1775 1774 -1.12715068E6
1775 1775 2.25180036E6
1775 1776 -1.12464968E6
1776 1775 -1.12715068E6
1776 1776 2.25180036E6
1776 1777 -1.12464968E6
1777 1776 -1.12715068E6
1777 1777 2.25180036E6
1777 1778 -1.12464968E6
1778 1777 -1.12715068E6
1778 1778 2.25180036E6
1778 1779 -1.12464968E6
1779 1778 -1.12715068E6
1779 1779 2.25180036E6
1779 1780 -1.12464968E6
1780 1779 -1.12715068E6
1780 1780 2.25180036E6
1780 1781 -1.12464968E6
1781 1780 -1.12715068E6
1781 1781 2.25180036E6
1781 1782 -1.12464968E6
1782 1781 -1.12715068E6
1782 1782 2.25180036E6
1782 1783 -1.12464968E6
1783 1782 -1.12715068E6
1783 1783 2.25180036E6
1783 1784 -1.12464968E6
1784 1783 -1.12715068E6
1784 1784 2.25180036E6
1784 1785 -1.12464968E6
1785 1784 -1.12715068E6
1785 1785 2.25180036E6
1785 1786 -1.12464968E6
1786 1785 -1.12715068E6
1786 1786 2.25180036E6
1786 1787 -1.12464968E6
1787 1786 -1.12715068E6
1787 1787 2.25180036E6
1787 1788 -1.12464968E6
1788 1787 -1.12715068E6
1788 1788 2.25180036E6
1788 1789 -1.12464968E6
1789 1788 -1.12715068E6
1789 1789 2.25180036E6
1789 1790 -1.12464968E6
1790 1789 -1.12715068E6
1790 1790 2.25180036E6
1790 1791 -1.12464968E6
1791 1790 -1.12715068E6
1791 1791 2.25180036E6
1791 1792 -1.12464968E6
1792 1791 -1.12715068E6
1792 1792 2.25180036E6
1792 1793 -1.12464968E6
1793 1792 -1.12715068E6
1793 1793 2.25180036E6
1793 1794 -1.12464968E6
1794 1793 -1.12715068E6
1794 1794 2.25180036E6
1794 1795 -1.12464968E6
1795 1794 -1.12715068E6
1795 1795 2.25180036E6
1795 1796 -1.12464968E6
1796 1795 -1.12715068E6
1796 1796 2.25180036E6
1796 1797 -1.12464968E6
1797 1796 -1.12715068E6
1797 1797 2.25180036E6
1797 1798 -1.12464968E6
1798 1797 -1.12715068E6
1798 1798 2.25180036E6
1798 1799 -1.12464968E6
1799 1798 -1.12715068E6
1799 1799 2.25180036E6
1799 1800 -1.12464968E6
1800 1799 -1.12715068E6
1800 1800 2.25180036E6
1800 1801 -1.12464968E6
1801 1800 -1.12715068E6
1801 1801 2.25180036E6
1801 1802 -1.12464968E6
1802 1801 -1.12715068E6
1802 1802 2.25180036E6
1802 1803 -1.12464968E6
1803 1802 -1.12715068E6
1803 1803 2.25180036E6
1803 1804 -1.12464968E6
1804 1803 -1.12715068E6
1804 1804 2.25180036E6
1804 1805 -1.12464968E6
1805 1804 -1.12715068E6
1805 1805 2.25180036E6
1805 1806 -1.12464968E6
1806 1805 -1.12715068E6
1806 1806 2.25180036E6
1806 1807 -1.12464968E6
1807 1806 -1.12715068E6
1807 1807 2.25180036E6
1807 1808 -1.12464968E6
1808 1807 -1.12715068E6
1808 1808 2.25180036E6
1808 1809 -1.12464968E6
1809 1808 -1.12715068E6
1809 1809 2.25180036E6
1809 1810 -1.12464968E6
1810 1809 -1.12715068E6
1810 1810 2.25180036E6
1810 1811 -1.12464968E6
1811 1810 -1.12715068E6
1811 1811 2.25180036E6
1811 1812 -1.12464968E6
1812 1811 -1.12715068E6
1812 1812 2.25180036E6
1812 1813 -1.12464968E6
1813 1812 -1.12715068E6
1813 1813 2.25180036E6
1813 1814 -1.12464968E6
1814 1813 -1.12715068E6
1814 1814 2.25180036E6
1814 1815 -1.12464968E6
1815 1814 -1.12715068E6
1815 1815 2.25180036E6
1815 1816 -1.12464968E6
1816 1815 -1.12715068E6
1816 1816 2.25180036E6
1816 1817 -1.12464968E6
1817 1816 -1.12715068E6
1817 1817 2.25180036E6
1817 1818 -1.12464968E6
1818 1817 -1.12715068E6
1818 1818 2.25180036E6
1818 1819 -1.12464968E6
1819 1818 -1.12715068E6
1819 1819 2.25180036E6
1819 1820 -1.12464968E6
1820 1819 -1.12715068E6
1820 1820 2.25180036E6
1820 1821 -1.12464968E6
1821 1820 -1.12715068E6
1821 1821 2.25180036E6
1821 1822 -1.12464968E6
1822 1821 -1.12715068E6
1822 1822 2.25180036E6
1822 1823 -1.12464968E6
1823 1822 -1.12715068E6
1823 1823 2.25180036E6
1823 1824 -1.12464968E6
1824 1823 -1.12715068E6
1824 1824 2.25180036E6
1824 1825 -1.12464968E6
1825 1824 -1.12715068E6
1825 1825 2.25180036E6
1825 1826 -1.12464968E6
1826 1825 -1.12715068E6
1826 1826 2.25180036E6
1826 1827 -1.12464968E6
1827 1826 -1.12715068E6
1827 1827 2.25180036E6
1827 1828 -1.12464968E6
1828 1827 -1.12715068E6
1828 1828 2.25180036E6
1828 1829 -1.12464968E6
1829 1828 -1.12715068E6
1829 1829 2.25180036E6
1829 1830 -1.12464968E6
1830 1829 -1.12715068E6
1830 1830 2.25180036E6
1830 1831 -1.12464968E6
1831 1830 -1.12715068E6
1831 1831 2.25180036E6
1831 1832 -1.12464968E6
1832 1831 -1.12715068E6
1832 1832 2.25180036E6
1832 1833 -1.12464968E6
1833 1832 -1.12715068E6
1833 1833 2.25180036E6
1833 1834 -1.12464968E6
1834 1833 -1.12715068E6
1834 1834 2.25180036E6
1834 1835 -1.12464968E6
1835 1834 -1.12715068E6
1835 1835 2.25180036E6
1835 1836 -1.12464968E6
1836 1835 -1.12715068E6
1836 1836 2.25180036E6
1836 1837 -1.12464968E6
1837 1836 -1.12715068E6
1837 1837 2.25180036E6
1837 1838 -1.12464968E6
1838 1837 -1.12715068E6
1838 1838 2.25180036E6
1838 1839 -1.12464968E6
1839 1838 -1.12715068E6
1839 1839 2.25180036E6
1839 1840 -1.12464968E6
1840 1839 -1.12715068E6
1840 1840 2.25180036E6
1840 1841 -1.12464968E6
1841 1840 -1.12715068E6
1841 1841 2.25180036E6
1841 1842 -1.12464968E6
1842 1841 -1.12715068E6
1842 1842 2.25180036E6
1842 1843 -1.12464968E6
1843 1842 -1.12715068E6
1843 1843 2.25180036E6
1843 1844 -1.12464968E6
1844 1843 -1.12715068E6
1844 1844 2.25180036E6
1844 1845 -1.12464968E6
1845 1844 -1.12715068E6
1845 1845 2.25180036E6
1845 1846 -1.12464968E6
1846 1845 -1.12715068E6
1846 1846 2.25180036E6
1846 1847 -1.12464968E6
1847 1846 -1.12715068E6
1847 1847 2.25180036E6
1847 1848 -1.12464968E6
1848 1847 -1.12715068E6
1848 1848 2.25180036E6
1848 1849 -1.12464968E6
1849 1848 -1.12715068E6
1849 1849 2.25180036E6
1849 1850 -1.12464968E6
1850 1849 -1.12715068E6
1850 1850 2.25180036E6
1850 1851 -1.12464968E6
1851 1850 -1.12715068E6
1851 1851 2.25180036E6
1851 1852 -1.12464968E6
1852 1851 -1.12715068E6
1852 1852 2.25180036E6
1852 1853 -1.12464968E6
1853 1852 -1.12715068E6
1853 1853 2.25180036E6
1853 1854 -1.12464968E6
1854 1853 -1.12715068E6
1854 1854 2.25180036E6
1854 1855 -1.12464968E6
1855 1854 -1.12715068E6
1855 1855 2.25180036E6
1855 1856 -1.12464968E6
1856 1855 -1.12715068E6
1856 1856 2.25180036E6
1856 1857 -1.12464968E6
1857 1856 -1.12715068E6
1857 1857 2.25180036E6
1857 1858 -1.12464968E6
1858 1857 -1.12715068E6
1858 1858 2.25180036E6
1858 1859 -1.12464968E6
1859 1858 -1.12715068E6
1859 1859 2.25180036E6
1859 1860 -1.12464968E6
1860 1859 -1.12715068E6
1860 1860 2.25180036E6
1860 1861 -1.12464968E6
1861 1860 -1.12715068E6
1861 1861 2.25180036E6
1861 1862 -1.12464968E6
1862 1861 -1.12715068E6
1862 1862 2.25180036E6
1862 1863 -1.12464968E6
1863 1862 -1.12715068E6
1863 1863 2.25180036E6
1863 1864 -1.12464968E6
1864 1863 -1.12715068E6
1864 1864 2.25180036E6
1864 1865 -1.12464968E6
1865 1864 -1.12715068E6
1865 1865 2.25180036E6
1865 1866 -1.12464968E6
1866 1865 -1.12715068E6
1866 1866 2.25180036E6
1866 1867 -1.12464968E6
1867 1866 -1.12715068E6
1867 1867 2.25180036E6
1867 1868 -1.12464968E6
1868 1867 -1.12715068E6
1868 1868 2.25180036E6
1868 1869 -1.12464968E6
1869 1868 -1.12715068E6
1869 1869 2.25180036E6
1869 1870 -1.12464968E6
1870 1869 -1.12715068E6
1870 1870 2.25180036E6
1870 1871 -1.12464968E6
1871 1870 -1.12715068E6
1871 1871 2.25180036E6
1871 1872 -1.12464968E6
1872 1871 -1.12715068E6
1872 1872 2.25180036E6
1872 1873 -1.12464968E6
1873 1872 -1.12715068E6
1873 1873 2.25180036E6
1873 1874 -1.12464968E6
1874 1873 -1.12715068E6
1874 1874 2.25180036E6
1874 1875 -1.12464968E6
1875 1874 -1.12715068E6
1875 1875 2.25180036E6
1875 1876 -1.12464968E6
1876 1875 -1.12715068E6
1876 1876 2.25180036E6
1876 1877 -1.12464968E6
1877 1876 -1.12715068E6
1877 1877 2.25180036E6
1877 1878 -1.12464968E6
1878 1877 -1.12715068E6
1878 1878 2.25180036E6
1878 1879 -1.12464968E6
1879 1878 -1.12715068E6
1879 1879 2.25180036E6
1879 1880 -1.12464968E6
1880 1879 -1.12715068E6
1880 1880 2.25180036E6
1880 1881 -1.12464968E6
1881 1880 -1.12715068E6
1881 1881 2.25180036E6
1881 1882 -1.12464968E6
1882 1881 -1.12715068E6
1882 1882 2.25180036E6
1882 1883 -1.12464968E6
1883 1882 -1.12715068E6
1883 1883 2.25180036E6
1883 1884 -1.12464968E6
1884 1883 -1.12715068E6
1884 1884 2.25180036E6
1884 1885 -1.12464968E6
1885 1884 -1.12715068E6
1885 1885 2.25180036E6
1885 1886 -1.12464968E6
1886 1885 -1.12715068E6
1886 1886 2.25180036E6
1886 1887 -1.12464968E6
1887 1886 -1.12715068E6
1887 1887 2.25180036E6
1887 1888 -1.12464968E6
1888 1887 -1.12715068E6
1888 1888 2.25180036E6
1888 1889 -1.12464968E6
1889 1888 -1.12715068E6
1889 1889 2.25180036E6
1889 1890 -1.12464968E6
1890 1889 -1.12715068E6
1890 1890 2.25180036E6
1890 1891 -1.12464968E6
1891 1890 -1.12715068E6
1891 1891 2.25180036E6
1891 1892 -1.12464968E6
1892 1891 -1.12715068E6
1892 1892 2.25180036E6
1892 1893 -1.12464968E6
1893 1892 -1.12715068E6
1893 1893 2.25180036E6
1893 1894 -1.12464968E6
1894 1893 -1.12715068E6
1894 1894 2.25180036E6
1894 1895 -1.12464968E6
1895 1894 -1.12715068E6
1895 1895 2.25180036E6
1895 1896 -1.12464968E6
1896 1895 -1.12715068E6
1896 1896 2.25180036E6
1896 1897 -1.12464968E6
1897 1896 -1.12715068E6
1897 1897 2.25180036E6
1897 1898 -1.12464968E6
1898 1897 -1.12715068E6
1898 1898 2.25180036E6
1898 1899 -1.12464968E6
1899 1898 -1.12715068E6
1899 1899 2.25180036E6
1899 1900 -1.12464968E6
1900 1899 -1.12715068E6
1900 1900 2.25180036E6
1900 1901 -1.12464968E6
1901 1900 -1.12715068E6
1901 1901 2.25180036E6
1901 1902 -1.12464968E6
1902 1901 -1.12715068E6
1902 1902 2.25180036E6
1902 1903 -1.12464968E6
1903 1902 -1.12715068E6
1903 1903 2.25180036E6
1903 1904 -1.12464968E6
1904 1903 -1.12715068E6
1904 1904 2.25180036E6
1904 1905 -1.12464968E6
1905 1904 -1.12715068E6
1905 1905 2.25180036E6
1905 1906 -1.12464968E6
1906 1905 -1.12715068E6
1906 1906 2.25180036E6
1906 1907 -1.12464968E6
1907 1906 -1.12715068E6
1907 1907 2.25180036E6
1907 1908 -1.12464968E6
1908 1907 -1.12715068E6
1908 1908 2.25180036E6
1908 1909 -1.12464968E6
1909 1908 -1.12715068E6
1909 1909 2.25180036E6
1909 1910 -1.12464968E6
1910 1909 -1.12715068E6
1910 1910 2.25180036E6
1910 1911 -1.12464968E6
1911 1910 -1.12715068E6
1911 1911 2.25180036E6
1911 1912 -1.12464968E6
1912 1911 -1.12715068E6
1912 1912 2.25180036E6
1912 1913 -1.12464968E6
1913 1912 -1.12715068E6
1913 1913 2.25180036E6
1913 1914 -1.12464968E6
1914 1913 -1.12715068E6
1914 1914 2.25180036E6
1914 1915 -1.12464968E6
1915 1914 -1.12715068E6
1915 1915 2.25180036E6
1915 1916 -1.12464968E6
1916 1915 -1.12715068E6
1916 1916 2.25180036E6
1916 1917 -1.12464968E6
1917 1916 -1.12715068E6
1917 1917 2.25180036E6
1917 1918 -1.12464968E6
1918 1917 -1.12715068E6
1918 1918 2.25180036E6
1918 1919 -1.12464968E6
1919 1918 -1.12715068E6
1919 1919 2.25180036E6
1919 1920 -1.12464968E6
1920 1919 -1.12715068E6
1920 1920 2.25180036E6
1920 1921 -1.12464968E6
1921 1920 -1.12715068E6
1921 1921 2.25180036E6
1921 1922 -1.12464968E6
1922 1921 -1.12715068E6
1922 1922 2.25180036E6
1922 1923 -1.12464968E6
1923 1922 -1.12715068E6
1923 1923 2.25180036E6
1923 1924 -1.12464968E6
1924 1923 -1.12715068E6
1924 1924 2.25180036E6
1924 1925 -1.12464968E6
1925 1924 -1.12715068E6
1925 1925 2.25180036E6
1925 1926 -1.12464968E6
1926 1925 -1.12715068E6
1926 1926 2.25180036E6
1926 1927 -1.12464968E6
1927 1926 -1.12715068E6
1927 1927 2.25180036E6
1927 1928 -1.12464968E6
1928 1927 -1.12715068E6
1928 1928 2.25180036E6
1928 1929 -1.12464968E6
1929 1928 -1.12715068E6
1929 1929 2.25180036E6
1929 1930 -1.12464968E6
1930 1929 -1.12715068E6
1930 1930 2.25180036E6
1930 1931 -1.12464968E6
1931 1930 -1.12715068E6
1931 1931 2.25180036E6
1931 1932 -1.12464968E6
1932 1931 -1.12715068E6
1932 1932 2.25180036E6
1932 1933 -1.12464968E6
1933 1932 -1.12715068E6
1933 1933 2.25180036E6
1933 1934 -1.12464968E6
1934 1933 -1.12715068E6
1934 1934 2.25180036E6
1934 1935 -1.12464968E6
1935 1934 -1.12715068E6
1935 1935 2.25180036E6
1935 1936 -1.12464968E6
1936 1935 -1.12715068E6
1936 1936 2.25180036E6
1936 1937 -1.12464968E6
1937 1936 -1.12715068E6
1937 1937 2.25180036E6
1937 1938 -1.12464968E6
1938 1937 -1.12715068E6
1938 1938 2.25180036E6
1938 1939 -1.12464968E6
1939 1938 -1.12715068E6
1939 1939 2.25180036E6
1939 1940 -1.12464968E6
1940 1939 -1.12715068E6
1940 1940 2.25180036E6
1940 1941 -1.12464968E6
1941 1940 -1.12715068E6
1941 1941 2.25180036E6
1941 1942 -1.12464968E6
1942 1941 -1.12715068E6
1942 1942 2.25180036E6
1942 1943 -1.12464968E6
1943 1942 -1.12715068E6
1943 1943 2.25180036E6
1943 1944 -1.12464968E6
1944 1943 -1.12715068E6
1944 1944 2.25180036E6
1944 1945 -1.12464968E6
1945 1944 -1.12715068E6
1945 1945 2.25180036E6
1945 1946 -1.12464968E6
1946 1945 -1.12715068E6
1946 1946 2.25180036E6
1946 1947 -1.12464968E6
1947 1946 -1.12715068E6
1947 1947 2.25180036E6
1947 1948 -1.12464968E6
1948 1947 -1.12715068E6
1948 1948 2.25180036E6
1948 1949 -1.12464968E6
1949 1948 -1.12715068E6
1949 1949 2.25180036E6
1949 1950 -1.12464968E6
1950 1949 -1.12715068E6
1950 1950 2.25180036E6
1950 1951 -1.12464968E6
1951 1950 -1.12715068E6
1951 1951 2.25180036E6
1951 1952 -1.12464968E6
1952 1951 -1.12715068E6
1952 1952 2.25180036E6
1952 1953 -1.12464968E6
1953 1952 -1.12715068E6
1953 1953 2.25180036E6
1953 1954 -1.12464968E6
1954 1953 -1.12715068E6
1954 1954 2.25180036E6
1954 1955 -1.12464968E6
1955 1954 -1.12715068E6
1955 1955 2.25180036E6
1955 1956 -1.12464968E6
1956 1955 -1.12715068E6
1956 1956 2.25180036E6
1956 1957 -1.12464968E6
1957 1956 -1.12715068E6
1957 1957 2.25180036E6
1957 1958 -1.12464968E6
1958 1957 -1.12715068E6
1958 1958 2.25180036E6
1958 1959 -1.12464968E6
1959 1958 -1.12715068E6
1959 1959 2.25180036E6
1959 1960 -1.12464968E6
1960 1959 -1.12715068E6
1960 1960 2.25180036E6
1960 1961 -1.12464968E6
1961 1960 -1.12715068E6
1961 1961 2.25180036E6
1961 1962 -1.12464968E6
1962 1961 -1.12715068E6
1962 1962 2.25180036E6
1962 1963 -1.12464968E6
1963 1962 -1.12715068E6
1963 1963 2.25180036E6
1963 1964 -1.12464968E6
1964 1963 -1.12715068E6
1964 1964 2.25180036E6
1964 1965 -1.12464968E6
1965 1964 -1.12715068E6
1965 1965 2.25180036E6
1965 1966 -1.12464968E6
1966 1965 -1.12715068E6
1966 1966 2.25180036E6
1966 1967 -1.12464968E6
1967 1966 -1.12715068E6
1967 1967 2.25180036E6
1967 1968 -1.12464968E6
1968 1967 -1.12715068E6
1968 1968 2.25180036E6
1968 1969 -1.12464968E6
1969 1968 -1.12715068E6
1969 1969 2.25180036E6
1969 1970 -1.12464968E6
1970 1969 -1.12715068E6
1970 1970 2.25180036E6
1970 1971 -1.12464968E6
1971 1970 -1.12715068E6
1971 1971 2.25180036E6
1971 1972 -1.12464968E6
1972 1971 -1.12715068E6
1972 1972 2.25180036E6
1972 1973 -1.12464968E6
1973 1972 -1.12715068E6
1973 1973 2.25180036E6
1973 1974 -1.12464968E6
1974 1973 -1.12715068E6
1974 1974 2.25180036E6
1974 1975 -1.12464968E6
1975 1974 -1.12715068E6
1975 1975 2.25180036E6
1975 1976 -1.12464968E6
1976 1975 -1.12715068E6
1976 1976 2.25180036E6
1976 1977 -1.12464968E6
1977 1976 -1.12715068E6
1977 1977 2.25180036E6
1977 1978 -1.12464968E6
1978 1977 -1.12715068E6
1978 1978 2.25180036E6
1978 1979 -1.12464968E6
1979 1978 -1.12715068E6
1979 1979 2.25180036E6
1979 1980 -1.12464968E6
1980 1979 -1.12715068E6
1980 1980 2.25180036E6
1980 1981 -1.12464968E6
1981 1980 -1.12715068E6
1981 1981 2.25180036E6
1981 1982 -1.12464968E6
1982 1981 -1.12715068E6
1982 1982 2.25180036E6
1982 1983 -1.12464968E6
1983 1982 -1.12715068E6
1983 1983 2.25180036E6
1983 1984 -1.12464968E6
1984 1983 -1.12715068E6
1984 1984 2.25180036E6
1984 1985 -1.12464968E6
1985 1984 -1.12715068E6
1985 1985 2.25180036E6
1985 1986 -1.12464968E6
1986 1985 -1.12715068E6
1986 1986 2.25180036E6
1986 1987 -1.12464968E6
1987 1986 -1.12715068E6
1987 1987 2.25180036E6
1987 1988 -1.12464968E6
1988 1987 -1.12715068E6
1988 1988 2.25180036E6
1988 1989 -1.12464968E6
1989 1988 -1.12715068E6
1989 1989 2.25180036E6
1989 1990 -1.12464968E6
1990 1989 -1.12715068E6
1990 1990 2.25180036E6
1990 1991 -1.12464968E6
1991 1990 -1.12715068E6
1991 1991 2.25180036E6
1991 1992 -1.12464968E6
1992 1991 -1.12715068E6
1992 1992 2.25180036E6
1992 1993 -1.12464968E6
1993 1992 -1.12715068E6
1993 1993 2.25180036E6
1993 1994 -1.12464968E6
1994 1993 -1.12715068E6
1994 1994 2.25180036E6
1994 1995 -1.12464968E6
1995 1994 -1.12715068E6
1995 1995 2.25180036E6
1995 1996 -1.12464968E6
1996 1995 -1.12715068E6
1996 1996 2.25180036E6
1996 1997 -1.12464968E6
1997 1996 -1.12715068E6
1997 1997 2.25180036E6
1997 1998 -1.12464968E6
1998 1997 -1.12715068E6
1998 1998 2.25180036E6
1998 1999 -1.12464968E6
1999 1998 -1.12715068E6
1999 1999 2.25180036E6
1999 2000 -1.12464968E6
2000 1999 -1.12715068E6
2000 2000 2.25180036E6
2000 2001 -1.12464968E6
2001 2000 -1.12715068E6
2001 2001 2.25180036E6
2001 2002 -1.12464968E6
2002 2001 -1.12715068E6
2002 2002 2.25180036E6
2002 2003 -1.12464968E6
2003 2002 -1.12715068E6
2003 2003 2.25180036E6
2003 2004 -1.12464968E6
2004 2003 -1.12715068E6
2004 2004 2.25180036E6
2004 2005 -1.12464968E6
2005 2004 -1.12715068E6
2005 2005 2.25180036E6
2005 2006 -1.12464968E6
2006 2005 -1.12715068E6
2006 2006 2.25180036E6
2006 2007 -1.12464968E6
2007 2006 -1.12715068E6
2007 2007 2.25180036E6
2007 2008 -1.12464968E6
2008 2007 -1.12715068E6
2008 2008 2.25180036E6
2008 2009 -1.12464968E6
2009 2008 -1.12715068E6
2009 2009 2.25180036E6
2009 2010 -1.12464968E6
2010 2009 -1.12715068E6
2010 2010 2.25180036E6
2010 2011 -1.12464968E6
2011 2010 -1.12715068E6
2011 2011 2.25180036E6
2011 2012 -1.12464968E6
2012 2011 -1.12715068E6
2012 2012 2.25180036E6
2012 2013 -1.12464968E6
2013 2012 -1.12715068E6
2013 2013 2.25180036E6
2013 2014 -1.12464968E6
2014 2013 -1.12715068E6
2014 2014 2.25180036E6
2014 2015 -1.12464968E6
2015 2014 -1.12715068E6
2015 2015 2.25180036E6
2015 2016 -1.12464968E6
2016 2015 -1.12715068E6
2016 2016 2.25180036E6
2016 2017 -1.12464968E6
2017 2016 -1.12715068E6
2017 2017 2.25180036E6
2017 2018 -1.12464968E6
2018 2017 -1.12715068E6
2018 2018 2.25180036E6
2018 2019 -1.12464968E6
2019 2018 -1.12715068E6
2019 2019 2.25180036E6
2019 2020 -1.12464968E6
2020 2019 -1.12715068E6
2020 2020 2.25180036E6
2020 2021 -1.12464968E6
2021 2020 -1.12715068E6
2021 2021 2.25180036E6
2021 2022 -1.12464968E6
2022 2021 -1.12715068E6
2022 2022 2.25180036E6
2022 2023 -1.12464968E6
2023 2022 -1.12715068E6
2023 2023 2.25180036E6
2023 2024 -1.12464968E6
2024 2023 -1.12715068E6
2024 2024 2.25180036E6
2024 2025 -1.12464968E6
2025 2024 -1.12715068E6
2025 2025 2.25180036E6
2025 2026 -1.12464968E6
2026 2025 -1.12715068E6
2026 2026 2.25180036E6
2026 2027 -1.12464968E6
2027 2026 -1.12715068E6
2027 2027 2.25180036E6
2027 2028 -1.12464968E6
2028 2027 -1.12715068E6
2028 2028 2.25180036E6
2028 2029 -1.12464968E6
2029 2028 -1.12715068E6
2029 2029 2.25180036E6
2029 2030 -1.12464968E6
2030 2029 -1.12715068E6
2030 2030 2.25180036E6
2030 2031 -1.12464968E6
2031 2030 -1.12715068E6
2031 2031 2.25180036E6
2031 2032 -1.12464968E6
2032 2031 -1.12715068E6
2032 2032 2.25180036E6
2032 2033 -1.12464968E6
2033 2032 -1.12715068E6
2033 2033 2.25180036E6
2033 2034 -1.12464968E6
2034 2033 -1.12715068E6
2034 2034 2.25180036E6
2034 2035 -1.12464968E6
2035 2034 -1.12715068E6
2035 2035 2.25180036E6
2035 2036 -1.12464968E6
2036 2035 -1.12715068E6
2036 2036 2.25180036E6
2036 2037 -1.12464968E6
2037 2036 -1.12715068E6
2037 2037 2.25180036E6
2037 2038 -1.12464968E6
2038 2037 -1.12715068E6
2038 2038 2.25180036E6
2038 2039 -1.12464968E6
2039 2038 -1.12715068E6
2039 2039 2.25180036E6
2039 2040 -1.12464968E6
2040 2039 -1.12715068E6
2040 2040 2.25180036E6
2040 2041 -1.12464968E6
2041 2040 -1.12715068E6
2041 2041 2.25180036E6
2041 2042 -1.12464968E6
2042 2041 -1.12715068E6
2042 2042 2.25180036E6
2042 2043 -1.12464968E6
2043 2042 -1.12715068E6
2043 2043 2.25180036E6
2043 2044 -1.12464968E6
2044 2043 -1.12715068E6
2044 2044 2.25180036E6
2044 2045 -1.12464968E6
2045 2044 -1.12715068E6
2045 2045 2.25180036E6
2045 2046 -1.12464968E6
2046 2045 -1.12715068E6
2046 2046 2.25180036E6
2046 2047 -1.12464968E6
2047 2046 -1.12715068E6
2047 2047 2.25180036E6
2047 2048 -1.12464968E6
2048 2047 -1.12715068E6
2048 2048 2.25180036E6
2048 2049 -1.12464968E6
2049 2048 -1.12715068E6
2049 2049 2.25180036E6
2049 2050 -1.12464968E6
2050 2049 -1.12715068E6
2050 2050 2.25180036E6
2050 2051 -1.12464968E6
2051 2050 -1.12715068E6
2051 2051 2.25180036E6
2051 2052 -1.12464968E6
2052 2051 -1.12715068E6
2052 2052 2.25180036E6
2052 2053 -1.12464968E6
2053 2052 -1.12715068E6
2053 2053 2.25180036E6
2053 2054 -1.12464968E6
2054 2053 -1.12715068E6
2054 2054 2.25180036E6
2054 2055 -1.12464968E6
2055 2054 -1.12715068E6
2055 2055 2.25180036E6
2055 2056 -1.12464968E6
2056 2055 -1.12715068E6
2056 2056 2.25180036E6
2056 2057 -1.12464968E6
2057 2056 -1.12715068E6
2057 2057 2.25180036E6
2057 2058 -1.12464968E6
2058 2057 -1.12715068E6
2058 2058 2.25180036E6
2058 2059 -1.12464968E6
2059 2058 -1.12715068E6
2059 2059 2.25180036E6
2059 2060 -1.12464968E6
2060 2059 -1.12715068E6
2060 2060 2.25180036E6
2060 2061 -1.12464968E6
2061 2060 -1.12715068E6
2061 2061 2.25180036E6
2061 2062 -1.12464968E6
2062 2061 -1.12715068E6
2062 2062 2.25180036E6
2062 2063 -1.12464968E6
2063 2062 -1.12715068E6
2063 2063 2.25180036E6
2063 2064 -1.12464968E6
2064 2063 -1.12715068E6
2064 2064 2.25180036E6
2064 2065 -1.12464968E6
2065 2064 -1.12715068E6
2065 2065 2.25180036E6
2065 2066 -1.12464968E6
2066 2065 -1.12715068E6
2066 2066 2.25180036E6
2066 2067 -1.12464968E6
2067 2066 -1.12715068E6
2067 2067 2.25180036E6
2067 2068 -1.12464968E6
2068 2067 -1.12715068E6
2068 2068 2.25180036E6
2068 2069 -1.12464968E6
2069 2068 -1.12715068E6
2069 2069 2.25180036E6
2069 2070 -1.12464968E6
2070 2069 -1.12715068E6
2070 2070 2.25180036E6
2070 2071 -1.12464968E6
2071 2070 -1.12715068E6
2071 2071 2.25180036E6
2071 2072 -1.12464968E6
2072 2071 -1.12715068E6
2072 2072 2.25180036E6
2072 2073 -1.12464968E6
2073 2072 -1.12715068E6
2073 2073 2.25180036E6
2073 2074 -1.12464968E6
2074 2073 -1.12715068E6
2074 2074 2.25180036E6
2074 2075 -1.12464968E6
2075 2074 -1.12715068E6
2075 2075 2.25180036E6
2075 2076 -1.12464968E6
2076 2075 -1.12715068E6
2076 2076 2.25180036E6
2076 2077 -1.12464968E6
2077 2076 -1.12715068E6
2077 2077 2.25180036E6
2077 2078 -1.12464968E6
2078 2077 -1.12715068E6
2078 2078 2.25180036E6
2078 2079 -1.12464968E6
2079 2078 -1.12715068E6
2079 2079 2.25180036E6
2079 2080 -1.12464968E6
2080 2079 -1.12715068E6
2080 2080 2.25180036E6
2080 2081 -1.12464968E6
2081 2080 -1.12715068E6
2081 2081 2.25180036E6
2081 2082 -1.12464968E6
2082 2081 -1.12715068E6
2082 2082 2.25180036E6
2082 2083 -1.12464968E6
2083 2082 -1.12715068E6
2083 2083 2.25180036E6
2083 2084 -1.12464968E6
2084 2083 -1.12715068E6
2084 2084 2.25180036E6
2084 2085 -1.12464968E6
2085 2084 -1.12715068E6
2085 2085 2.25180036E6
2085 2086 -1.12464968E6
2086 2085 -1.12715068E6
2086 2086 2.25180036E6
2086 2087 -1.12464968E6
2087 2086 -1.12715068E6
2087 2087 2.25180036E6
2087 2088 -1.12464968E6
2088 2087 -1.12715068E6
2088 2088 2.25180036E6
2088 2089 -1.12464968E6
2089 2088 -1.12715068E6
2089 2089 2.25180036E6
2089 2090 -1.12464968E6
2090 2089 -1.12715068E6
2090 2090 2.25180036E6
2090 2091 -1.12464968E6
2091 2090 -1.12715068E6
2091 2091 2.25180036E6
2091 2092 -1.12464968E6
2092 2091 -1.12715068E6
2092 2092 2.25180036E6
2092 2093 -1.12464968E6
2093 2092 -1.12715068E6
2093 2093 2.25180036E6
2093 2094 -1.12464968E6
2094 2093 -1.12715068E6
2094 2094 2.25180036E6
2094 2095 -1.12464968E6
2095 2094 -1.12715068E6
2095 2095 2.25180036E6
2095 2096 -1.12464968E6
2096 2095 -1.12715068E6
2096 2096 2.25180036E6
2096 2097 -1.12464968E6
2097 2096 -1.12715068E6
2097 2097 2.25180036E6
2097 2098 -1.12464968E6
2098 2097 -1.12715068E6
2098 2098 2.25180036E6
2098 2099 -1.12464968E6
2099 2098 -1.12715068E6
2099 2099 2.25180036E6
2099 2100 -1.12464968E6
2100 2099 -1.12715068E6
2100 2100 2.25180036E6
2100 2101 -1.12464968E6
2101 2100 -1.12715068E6
2101 2101 2.25180036E6
2101 2102 -1.12464968E6
2102 2101 -1.12715068E6
2102 2102 2.25180036E6
2102 2103 -1.12464968E6
2103 2102 -1.12715068E6
2103 2103 2.25180036E6
2103 2104 -1.12464968E6
2104 2103 -1.12715068E6
2104 2104 2.25180036E6
2104 2105 -1.12464968E6
2105 2104 -1.12715068E6
2105 2105 2.25180036E6
2105 2106 -1.12464968E6
2106 2105 -1.12715068E6
2106 2106 2.25180036E6
2106 2107 -1.12464968E6
2107 2106 -1.12715068E6
2107 2107 2.25180036E6
2107 2108 -1.12464968E6
2108 2107 -1.12715068E6
2108 2108 2.25180036E6
2108 2109 -1.12464968E6
2109 2108 -1.12715068E6
2109 2109 2.25180036E6
2109 2110 -1.12464968E6
2110 2109 -1.12715068E6
2110 2110 2.25180036E6
2110 2111 -1.12464968E6
2111 2110 -1.12715068E6
2111 2111 2.25180036E6
2111 2112 -1.12464968E6
2112 2111 -1.12715068E6
2112 2112 2.25180036E6
2112 2113 -1.12464968E6
2113 2112 -1.12715068E6
2113 2113 2.25180036E6
2113 2114 -1.12464968E6
2114 2113 -1.12715068E6
2114 2114 2.25180036E6
2114 2115 -1.12464968E6
2115 2114 -1.12715068E6
2115 2115 2.25180036E6
2115 2116 -1.12464968E6
2116 2115 -1.12715068E6
2116 2116 2.25180036E6
2116 2117 -1.12464968E6
2117 2116 -1.12715068E6
2117 2117 2.25180036E6
2117 2118 -1.12464968E6
2118 2117 -1.12715068E6
2118 2118 2.25180036E6
2118 2119 -1.12464968E6
2119 2118 -1.12715068E6
2119 2119 2.25180036E6
2119 2120 -1.12464968E6
2120 2119 -1.12715068E6
2120 2120 2.25180036E6
2120 2121 -1.12464968E6
2121 2120 -1.12715068E6
2121 2121 2.25180036E6
2121 2122 -1.12464968E6
2122 2121 -1.12715068E6
2122 2122 2.25180036E6
2122 2123 -1.12464968E6
2123 2122 -1.12715068E6
2123 2123 2.25180036E6
2123 2124 -1.12464968E6
2124 2123 -1.12715068E6
2124 2124 2.25180036E6
2124 2125 -1.12464968E6
2125 2124 -1.12715068E6
2125 2125 2.25180036E6
2125 2126 -1.12464968E6
2126 2125 -1.12715068E6
2126 2126 2.25180036E6
2126 2127 -1.12464968E6
2127 2126 -1.12715068E6
2127 2127 2.25180036E6
2127 2128 -1.12464968E6
2128 2127 -1.12715068E6
2128 2128 2.25180036E6
2128 2129 -1.12464968E6
2129 2128 -1.12715068E6
2129 2129 2.25180036E6
2129 2130 -1.12464968E6
2130 2129 -1.12715068E6
2130 2130 2.25180036E6
2130 2131 -1.12464968E6
2131 2130 -1.12715068E6
2131 2131 2.25180036E6
2131 2132 -1.12464968E6
2132 2131 -1.12715068E6
2132 2132 2.25180036E6
2132 2133 -1.12464968E6
2133 2132 -1.12715068E6
2133 2133 2.25180036E6
2133 2134 -1.12464968E6
2134 2133 -1.12715068E6
2134 2134 2.25180036E6
2134 2135 -1.12464968E6
2135 2134 -1.12715068E6
2135 2135 2.25180036E6
2135 2136 -1.12464968E6
2136 2135 -1.12715068E6
2136 2136 2.25180036E6
2136 2137 -1.12464968E6
2137 2136 -1.12715068E6
2137 2137 2.25180036E6
2137 2138 -1.12464968E6
2138 2137 -1.12715068E6
2138 2138 2.25180036E6
2138 2139 -1.12464968E6
2139 2138 -1.12715068E6
2139 2139 2.25180036E6
2139 2140 -1.12464968E6
2140 2139 -1.12715068E6
2140 2140 2.25180036E6
2140 2141 -1.12464968E6
2141 2140 -1.12715068E6
2141 2141 2.25180036E6
2141 2142 -1.12464968E6
2142 2141 -1.12715068E6
2142 2142 2.25180036E6
2142 2143 -1.12464968E6
2143 2142 -1.12715068E6
2143 2143 2.25180036E6
2143 2144 -1.12464968E6
2144 2143 -1.12715068E6
2144 2144 2.25180036E6
2144 2145 -1.12464968E6
2145 2144 -1.12715068E6
2145 2145 2.25180036E6
2145 2146 -1.12464968E6
2146 2145 -1.12715068E6
2146 2146 2.25180036E6
2146 2147 -1.12464968E6
2147 2146 -1.12715068E6
2147 2147 2.25180036E6
2147 2148 -1.12464968E6
2148 2147 -1.12715068E6
2148 2148 2.25180036E6
2148 2149 -1.12464968E6
2149 2148 -1.12715068E6
2149 2149 2.25180036E6
2149 2150 -1.12464968E6
2150 2149 -1.12715068E6
2150 2150 2.25180036E6
2150 2151 -1.12464968E6
2151 2150 -1.12715068E6
2151 2151 2.25180036E6
2151 2152 -1.12464968E6
2152 2151 -1.12715068E6
2152 2152 2.25180036E6
2152 2153 -1.12464968E6
2153 2152 -1.12715068E6
2153 2153 2.25180036E6
2153 2154 -1.12464968E6
2154 2153 -1.12715068E6
2154 2154 2.25180036E6
2154 2155 -1.12464968E6
2155 2154 -1.12715068E6
2155 2155 2.25180036E6
2155 2156 -1.12464968E6
2156 2155 -1.12715068E6
2156 2156 2.25180036E6
2156 2157 -1.12464968E6
2157 2156 -1.12715068E6
2157 2157 2.25180036E6
2157 2158 -1.12464968E6
2158 2157 -1.12715068E6
2158 2158 2.25180036E6
2158 2159 -1.12464968E6
2159 2158 -1.12715068E6
2159 2159 2.25180036E6
2159 2160 -1.12464968E6
2160 2159 -1.12715068E6
2160 2160 2.25180036E6
2160 2161 -1.12464968E6
2161 2160 -1.12715068E6
2161 2161 2.25180036E6
2161 2162 -1.12464968E6
2162 2161 -1.12715068E6
2162 2162 2.25180036E6
2162 2163 -1.12464968E6
2163 2162 -1.12715068E6
2163 2163 2.25180036E6
2163 2164 -1.12464968E6
2164 2163 -1.12715068E6
2164 2164 2.25180036E6
2164 2165 -1.12464968E6
2165 2164 -1.12715068E6
2165 2165 2.25180036E6
2165 2166 -1.12464968E6
2166 2165 -1.12715068E6
2166 2166 2.25180036E6
2166 2167 -1.12464968E6
2167 2166 -1.12715068E6
2167 2167 2.25180036E6
2167 2168 -1.12464968E6
2168 2167 -1.12715068E6
2168 2168 2.25180036E6
2168 2169 -1.12464968E6
2169 2168 -1.12715068E6
2169 2169 2.25180036E6
2169 2170 -1.12464968E6
2170 2169 -1.12715068E6
2170 2170 2.25180036E6
2170 2171 -1.12464968E6
2171 2170 -1.12715068E6
2171 2171 2.25180036E6
2171 2172 -1.12464968E6
2172 2171 -1.12715068E6
2172 2172 2.25180036E6
2172 2173 -1.12464968E6
2173 2172 -1.12715068E6
2173 2173 2.25180036E6
2173 2174 -1.12464968E6
2174 2173 -1.12715068E6
2174 2174 2.25180036E6
2174 2175 -1.12464968E6
2175 2174 -1.12715068E6
2175 2175 2.25180036E6
2175 2176 -1.12464968E6
2176 2175 -1.12715068E6
2176 2176 2.25180036E6
2176 2177 -1.12464968E6
2177 2176 -1.12715068E6
2177 2177 2.25180036E6
2177 2178 -1.12464968E6
2178 2177 -1.12715068E6
2178 2178 2.25180036E6
2178 2179 -1.12464968E6
2179 2178 -1.12715068E6
2179 2179 2.25180036E6
2179 2180 -1.12464968E6
2180 2179 -1.12715068E6
2180 2180 2.25180036E6
2180 2181 -1.12464968E6
2181 2180 -1.12715068E6
2181 2181 2.25180036E6
2181 2182 -1.12464968E6
2182 2181 -1.12715068E6
2182 2182 2.25180036E6
2182 2183 -1.12464968E6
2183 2182 -1.12715068E6
2183 2183 2.25180036E6
2183 2184 -1.12464968E6
2184 2183 -1.12715068E6
2184 2184 2.25180036E6
2184 2185 -1.12464968E6
2185 2184 -1.12715068E6
2185 2185 2.25180036E6
2185 2186 -1.12464968E6
2186 2185 -1.12715068E6
2186 2186 2.25180036E6
2186 2187 -1.12464968E6
2187 2186 -1.12715068E6
2187 2187 2.25180036E6
2187 2188 -1.12464968E6
2188 2187 -1.12715068E6
2188 2188 2.25180036E6
2188 2189 -1.12464968E6
2189 2188 -1.12715068E6
2189 2189 2.25180036E6
2189 2190 -1.12464968E6
2190 2189 -1.12715068E6
2190 2190 2.25180036E6
2190 2191 -1.12464968E6
2191 2190 -1.12715068E6
2191 2191 2.25180036E6
2191 2192 -1.12464968E6
2192 2191 -1.12715068E6
2192 2192 2.25180036E6
2192 2193 -1.12464968E6
2193 2192 -1.12715068E6
2193 2193 2.25180036E6
2193 2194 -1.12464968E6
2194 2193 -1.12715068E6
2194 2194 2.25180036E6
2194 2195 -1.12464968E6
2195 2194 -1.12715068E6
2195 2195 2.25180036E6
2195 2196 -1.12464968E6
2196 2195 -1.12715068E6
2196 2196 2.25180036E6
2196 2197 -1.12464968E6
2197 2196 -1.12715068E6
2197 2197 2.25180036E6
2197 2198 -1.12464968E6
2198 2197 -1.12715068E6
2198 2198 2.25180036E6
2198 2199 -1.12464968E6
2199 2198 -1.12715068E6
2199 2199 2.25180036E6
2199 2200 -1.12464968E6
2200 2199 -1.12715068E6
2200 2200 2.25180036E6
2200 2201 -1.12464968E6
2201 2200 -1.12715068E6
2201 2201 2.25180036E6
2201 2202 -1.12464968E6
2202 2201 -1.12715068E6
2202 2202 2.25180036E6
2202 2203 -1.12464968E6
2203 2202 -1.12715068E6
2203 2203 2.25180036E6
2203 2204 -1.12464968E6
2204 2203 -1.12715068E6
2204 2204 2.25180036E6
2204 2205 -1.12464968E6
2205 2204 -1.12715068E6
2205 2205 2.25180036E6
2205 2206 -1.12464968E6
2206 2205 -1.12715068E6
2206 2206 2.25180036E6
2206 2207 -1.12464968E6
2207 2206 -1.12715068E6
2207 2207 2.25180036E6
2207 2208 -1.12464968E6
2208 2207 -1.12715068E6
2208 2208 2.25180036E6
2208 2209 -1.12464968E6
2209 2208 -1.12715068E6
2209 2209 2.25180036E6
2209 2210 -1.12464968E6
2210 2209 -1.12715068E6
2210 2210 2.25180036E6
2210 2211 -1.12464968E6
2211 2210 -1.12715068E6
2211 2211 2.25180036E6
2211 2212 -1.12464968E6
2212 2211 -1.12715068E6
2212 2212 2.25180036E6
2212 2213 -1.12464968E6
2213 2212 -1.12715068E6
2213 2213 2.25180036E6
2213 2214 -1.12464968E6
2214 2213 -1.12715068E6
2214 2214 2.25180036E6
2214 2215 -1.12464968E6
2215 2214 -1.12715068E6
2215 2215 2.25180036E6
2215 2216 -1.12464968E6
2216 2215 -1.12715068E6
2216 2216 2.25180036E6
2216 2217 -1.12464968E6
2217 2216 -1.12715068E6
2217 2217 2.25180036E6
2217 2218 -1.12464968E6
2218 2217 -1.12715068E6
2218 2218 2.25180036E6
2218 2219 -1.12464968E6
2219 2218 -1.12715068E6
2219 2219 2.25180036E6
2219 2220 -1.12464968E6
2220 2219 -1.12715068E6
2220 2220 2.25180036E6
2220 2221 -1.12464968E6
2221 2220 -1.12715068E6
2221 2221 2.25180036E6
2221 2222 -1.12464968E6
2222 2221 -1.12715068E6
2222 2222 2.25180036E6
2222 2223 -1.12464968E6
2223 2222 -1.12715068E6
2223 2223 2.25180036E6
2223 2224 -1.12464968E6
2224 2223 -1.12715068E6
2224 2224 2.25180036E6
2224 2225 -1.12464968E6
2225 2224 -1.12715068E6
2225 2225 2.25180036E6
2225 2226 -1.12464968E6
2226 2225 -1.12715068E6
2226 2226 2.25180036E6
2226 2227 -1.12464968E6
2227 2226 -1.12715068E6
2227 2227 2.25180036E6
2227 2228 -1.12464968E6
2228 2227 -1.12715068E6
2228 2228 2.25180036E6
2228 2229 -1.12464968E6
2229 2228 -1.12715068E6
2229 2229 2.25180036E6
2229 2230 -1.12464968E6
2230 2229 -1.12715068E6
2230 2230 2.25180036E6
2230 2231 -1.12464968E6
2231 2230 -1.12715068E6
2231 2231 2.25180036E6
2231 2232 -1.12464968E6
2232 2231 -1.12715068E6
2232 2232 2.25180036E6
2232 2233 -1.12464968E6
2233 2232 -1.12715068E6
2233 2233 2.25180036E6
2233 2234 -1.12464968E6
2234 2233 -1.12715068E6
2234 2234 2.25180036E6
2234 2235 -1.12464968E6
2235 2234 -1.12715068E6
2235 2235 2.25180036E6
2235 2236 -1.12464968E6
2236 2235 -1.12715068E6
2236 2236 2.25180036E6
2236 2237 -1.12464968E6
2237 2236 -1.12715068E6
2237 2237 2.25180036E6
2237 2238 -1.12464968E6
2238 2237 -1.12715068E6
2238 2238 2.25180036E6
2238 2239 -1.12464968E6
2239 2238 -1.12715068E6
2239 2239 2.25180036E6
2239 2240 -1.12464968E6
2240 2239 -1.12715068E6
2240 2240 2.25180036E6
2240 2241 -1.12464968E6
2241 2240 -1.12715068E6
2241 2241 2.25180036E6
2241 2242 -1.12464968E6
2242 2241 -1.12715068E6
2242 2242 2.25180036E6
2242 2243 -1.12464968E6
2243 2242 -1.12715068E6
2243 2243 2.25180036E6
2243 2244 -1.12464968E6
2244 2243 -1.12715068E6
2244 2244 2.25180036E6
2244 2245 -1.12464968E6
2245 2244 -1.12715068E6
2245 2245 2.25180036E6
2245 2246 -1.12464968E6
2246 2245 -1.12715068E6
2246 2246 2.25180036E6
2246 2247 -1.12464968E6
2247 2246 -1.12715068E6
2247 2247 2.25180036E6
2247 2248 -1.12464968E6
2248 2247 -1.12715068E6
2248 2248 2.25180036E6
2248 2249 -1.12464968E6
2249 2248 -1.12715068E6
2249 2249 2.25180036E6
2249 2250 -1.12464968E6
2250 2249 -1.12715068E6
2250 2250 2.25180036E6
2250 2251 -1.12464968E6
2251 2250 -1.12715068E6
2251 2251 2.25180036E6
2251 2252 -1.12464968E6
2252 2251 -1.12715068E6
2252 2252 2.25180036E6
2252 2253 -1.12464968E6
2253 2252 -1.12715068E6
2253 2253 2.25180036E6
2253 2254 -1.12464968E6
2254 2253 -1.12715068E6
2254 2254 2.25180036E6
2254 2255 -1.12464968E6
2255 2254 -1.12715068E6
2255 2255 2.25180036E6
2255 2256 -1.12464968E6
2256 2255 -1.12715068E6
2256 2256 2.25180036E6
2256 2257 -1.12464968E6
2257 2256 -1.12715068E6
2257 2257 2.25180036E6
2257 2258 -1.12464968E6
2258 2257 -1.12715068E6
2258 2258 2.25180036E6
2258 2259 -1.12464968E6
2259 2258 -1.12715068E6
2259 2259 2.25180036E6
2259 2260 -1.12464968E6
2260 2259 -1.12715068E6
2260 2260 2.25180036E6
2260 2261 -1.12464968E6
2261 2260 -1.12715068E6
2261 2261 2.25180036E6
2261 2262 -1.12464968E6
2262 2261 -1.12715068E6
2262 2262 2.25180036E6
2262 2263 -1.12464968E6
2263 2262 -1.12715068E6
2263 2263 2.25180036E6
2263 2264 -1.12464968E6
2264 2263 -1.12715068E6
2264 2264 2.25180036E6
2264 2265 -1.12464968E6
2265 2264 -1.12715068E6
2265 2265 2.25180036E6
2265 2266 -1.12464968E6
2266 2265 -1.12715068E6
2266 2266 2.25180036E6
2266 2267 -1.12464968E6
2267 2266 -1.12715068E6
2267 2267 2.25180036E6
2267 2268 -1.12464968E6
2268 2267 -1.12715068E6
2268 2268 2.25180036E6
2268 2269 -1.12464968E6
2269 2268 -1.12715068E6
2269 2269 2.25180036E6
2269 2270 -1.12464968E6
2270 2269 -1.12715068E6
2270 2270 2.25180036E6
2270 2271 -1.12464968E6
2271 2270 -1.12715068E6
2271 2271 2.25180036E6
2271 2272 -1.12464968E6
2272 2271 -1.12715068E6
2272 2272 2.25180036E6
2272 2273 -1.12464968E6
2273 2272 -1.12715068E6
2273 2273 2.25180036E6
2273 2274 -1.12464968E6
2274 2273 -1.12715068E6
2274 2274 2.25180036E6
2274 2275 -1.12464968E6
2275 2274 -1.12715068E6
2275 2275 2.25180036E6
2275 2276 -1.12464968E6
2276 2275 -1.12715068E6
2276 2276 2.25180036E6
2276 2277 -1.12464968E6
2277 2276 -1.12715068E6
2277 2277 2.25180036E6
2277 2278 -1.12464968E6
2278 2277 -1.12715068E6
2278 2278 2.25180036E6
2278 2279 -1.12464968E6
2279 2278 -1.12715068E6
2279 2279 2.25180036E6
2279 2280 -1.12464968E6
2280 2279 -1.12715068E6
2280 2280 2.25180036E6
2280 2281 -1.12464968E6
2281 2280 -1.12715068E6
2281 2281 2.25180036E6
2281 2282 -1.12464968E6
2282 2281 -1.12715068E6
2282 2282 2.25180036E6
2282 2283 -1.12464968E6
2283 2282 -1.12715068E6
2283 2283 2.25180036E6
2283 2284 -1.12464968E6
2284 2283 -1.12715068E6
2284 2284 2.25180036E6
2284 2285 -1.12464968E6
2285 2284 -1.12715068E6
2285 2285 2.25180036E6
2285 2286 -1.12464968E6
2286 2285 -1.12715068E6
2286 2286 2.25180036E6
2286 2287 -1.12464968E6
2287 2286 -1.12715068E6
2287 2287 2.25180036E6
2287 2288 -1.12464968E6
2288 2287 -1.12715068E6
2288 2288 2.25180036E6
2288 2289 -1.12464968E6
2289 2288 -1.12715068E6
2289 2289 2.25180036E6
2289 2290 -1.12464968E6
2290 2289 -1.12715068E6
2290 2290 2.25180036E6
2290 2291 -1.12464968E6
2291 2290 -1.12715068E6
2291 2291 2.25180036E6
2291 2292 -1.12464968E6
2292 2291 -1.12715068E6
2292 2292 2.25180036E6
2292 2293 -1.12464968E6
2293 2292 -1.12715068E6
2293 2293 2.25180036E6
2293 2294 -1.12464968E6
2294 2293 -1.12715068E6
2294 2294 2.25180036E6
2294 2295 -1.12464968E6
2295 2294 -1.12715068E6
2295 2295 2.25180036E6
2295 2296 -1.12464968E6
2296 2295 -1.12715068E6
2296 2296 2.25180036E6
2296 2297 -1.12464968E6
2297 2296 -1.12715068E6
2297 2297 2.25180036E6
2297 2298 -1.12464968E6
2298 2297 -1.12715068E6
2298 2298 2.25180036E6
2298 2299 -1.12464968E6
2299 2298 -1.12715068E6
2299 2299 2.25180036E6
2299 2300 -1.12464968E6
2300 2299 -1.12715068E6
2300 2300 2.25180036E6
2300 2301 -1.12464968E6
2301 2300 -1.12715068E6
2301 2301 2.25180036E6
2301 2302 -1.12464968E6
2302 2301 -1.12715068E6
2302 2302 2.25180036E6
2302 2303 -1.12464968E6
2303 2302 -1.12715068E6
2303 2303 2.25180036E6
2303 2304 -1.12464968E6
2304 2303 -1.12715068E6
2304 2304 2.25180036E6
2304 2305 -1.12464968E6
2305 2304 -1.12715068E6
2305 2305 2.25180036E6
2305 2306 -1.12464968E6
2306 2305 -1.12715068E6
2306 2306 2.25180036E6
2306 2307 -1.12464968E6
2307 2306 -1.12715068E6
2307 2307 2.25180036E6
2307 2308 -1.12464968E6
2308 2307 -1.12715068E6
2308 2308 2.25180036E6
2308 2309 -1.12464968E6
2309 2308 -1.12715068E6
2309 2309 2.25180036E6
2309 2310 -1.12464968E6
2310 2309 -1.12715068E6
2310 2310 2.25180036E6
2310 2311 -1.12464968E6
2311 2310 -1.12715068E6
2311 2311 2.25180036E6
2311 2312 -1.12464968E6
2312 2311 -1.12715068E6
2312 2312 2.25180036E6
2312 2313 -1.12464968E6
2313 2312 -1.12715068E6
2313 2313 2.25180036E6
2313 2314 -1.12464968E6
2314 2313 -1.12715068E6
2314 2314 2.25180036E6
2314 2315 -1.12464968E6
2315 2314 -1.12715068E6
2315 2315 2.25180036E6
2315 2316 -1.12464968E6
2316 2315 -1.12715068E6
2316 2316 2.25180036E6
2316 2317 -1.12464968E6
2317 2316 -1.12715068E6
2317 2317 2.25180036E6
2317 2318 -1.12464968E6
2318 2317 -1.12715068E6
2318 2318 2.25180036E6
2318 2319 -1.12464968E6
2319 2318 -1.12715068E6
2319 2319 2.25180036E6
2319 2320 -1.12464968E6
2320 2319 -1.12715068E6
2320 2320 2.25180036E6
2320 2321 -1.12464968E6
2321 2320 -1.12715068E6
2321 2321 2.25180036E6
2321 2322 -1.12464968E6
2322 2321 -1.12715068E6
2322 2322 2.25180036E6
2322 2323 -1.12464968E6
2323 2322 -1.12715068E6
2323 2323 2.25180036E6
2323 2324 -1.12464968E6
2324 2323 -1.12715068E6
2324 2324 2.25180036E6
2324 2325 -1.12464968E6
2325 2324 -1.12715068E6
2325 2325 2.25180036E6
2325 2326 -1.12464968E6
2326 2325 -1.12715068E6
2326 2326 2.25180036E6
2326 2327 -1.12464968E6
2327 2326 -1.12715068E6
2327 2327 2.25180036E6
2327 2328 -1.12464968E6
2328 2327 -1.12715068E6
2328 2328 2.25180036E6
2328 2329 -1.12464968E6
2329 2328 -1.12715068E6
2329 2329 2.25180036E6
2329 2330 -1.12464968E6
2330 2329 -1.12715068E6
2330 2330 2.25180036E6
2330 2331 -1.12464968E6
2331 2330 -1.12715068E6
2331 2331 2.25180036E6
2331 2332 -1.12464968E6
2332 2331 -1.12715068E6
2332 2332 2.25180036E6
2332 2333 -1.12464968E6
2333 2332 -1.12715068E6
2333 2333 2.25180036E6
2333 2334 -1.12464968E6
2334 2333 -1.12715068E6
2334 2334 2.25180036E6
2334 2335 -1.12464968E6
2335 2334 -1.12715068E6
2335 2335 2.25180036E6
2335 2336 -1.12464968E6
2336 2335 -1.12715068E6
2336 2336 2.25180036E6
2336 2337 -1.12464968E6
2337 2336 -1.12715068E6
2337 2337 2.25180036E6
2337 2338 -1.12464968E6
2338 2337 -1.12715068E6
2338 2338 2.25180036E6
2338 2339 -1.12464968E6
2339 2338 -1.12715068E6
2339 2339 2.25180036E6
2339 2340 -1.12464968E6
2340 2339 -1.12715068E6
2340 2340 2.25180036E6
2340 2341 -1.12464968E6
2341 2340 -1.12715068E6
2341 2341 2.25180036E6
2341 2342 -1.12464968E6
2342 2341 -1.12715068E6
2342 2342 2.25180036E6
2342 2343 -1.12464968E6
2343 2342 -1.12715068E6
2343 2343 2.25180036E6
2343 2344 -1.12464968E6
2344 2343 -1.12715068E6
2344 2344 2.25180036E6
2344 2345 -1.12464968E6
2345 2344 -1.12715068E6
2345 2345 2.25180036E6
2345 2346 -1.12464968E6
2346 2345 -1.12715068E6
2346 2346 2.25180036E6
2346 2347 -1.12464968E6
2347 2346 -1.12715068E6
2347 2347 2.25180036E6
2347 2348 -1.12464968E6
2348 2347 -1.12715068E6
2348 2348 2.25180036E6
2348 2349 -1.12464968E6
2349 2348 -1.12715068E6
2349 2349 2.25180036E6
2349 2350 -1.12464968E6
2350 2349 -1.12715068E6
2350 2350 2.25180036E6
2350 2351 -1.12464968E6
2351 2350 -1.12715068E6
2351 2351 2.25180036E6
2351 2352 -1.12464968E6
2352 2351 -1.12715068E6
2352 2352 2.25180036E6
2352 2353 -1.12464968E6
2353 2352 -1.12715068E6
2353 2353 2.25180036E6
2353 2354 -1.12464968E6
2354 2353 -1.12715068E6
2354 2354 2.25180036E6
2354 2355 -1.12464968E6
2355 2354 -1.12715068E6
2355 2355 2.25180036E6
2355 2356 -1.12464968E6
2356 2355 -1.12715068E6
2356 2356 2.25180036E6
2356 2357 -1.12464968E6
2357 2356 -1.12715068E6
2357 2357 2.25180036E6
2357 2358 -1.12464968E6
2358 2357 -1.12715068E6
2358 2358 2.25180036E6
2358 2359 -1.12464968E6
2359 2358 -1.12715068E6
2359 2359 2.25180036E6
2359 2360 -1.12464968E6
2360 2359 -1.12715068E6
2360 2360 2.25180036E6
2360 2361 -1.12464968E6
2361 2360 -1.12715068E6
2361 2361 2.25180036E6
2361 2362 -1.12464968E6
2362 2361 -1.12715068E6
2362 2362 2.25180036E6
2362 2363 -1.12464968E6
2363 2362 -1.12715068E6
2363 2363 2.25180036E6
2363 2364 -1.12464968E6
2364 2363 -1.12715068E6
2364 2364 2.25180036E6
2364 2365 -1.12464968E6
2365 2364 -1.12715068E6
2365 2365 2.25180036E6
2365 2366 -1.12464968E6
2366 2365 -1.12715068E6
2366 2366 2.25180036E6
2366 2367 -1.12464968E6
2367 2366 -1.12715068E6
2367 2367 2.25180036E6
2367 2368 -1.12464968E6
2368 2367 -1.12715068E6
2368 2368 2.25180036E6
2368 2369 -1.12464968E6
2369 2368 -1.12715068E6
2369 2369 2.25180036E6
2369 2370 -1.12464968E6
2370 2369 -1.12715068E6
2370 2370 2.25180036E6
2370 2371 -1.12464968E6
2371 2370 -1.12715068E6
2371 2371 2.25180036E6
2371 2372 -1.12464968E6
2372 2371 -1.12715068E6
2372 2372 2.25180036E6
2372 2373 -1.12464968E6
2373 2372 -1.12715068E6
2373 2373 2.25180036E6
2373 2374 -1.12464968E6
2374 2373 -1.12715068E6
2374 2374 2.25180036E6
2374 2375 -1.12464968E6
2375 2374 -1.12715068E6
2375 2375 2.25180036E6
2375 2376 -1.12464968E6
2376 2375 -1.12715068E6
2376 2376 2.25180036E6
2376 2377 -1.12464968E6
2377 2376 -1.12715068E6
2377 2377 2.25180036E6
2377 2378 -1.12464968E6
2378 2377 -1.12715068E6
2378 2378 2.25180036E6
2378 2379 -1.12464968E6
2379 2378 -1.12715068E6
2379 2379 2.25180036E6
2379 2380 -1.12464968E6
2380 2379 -1.12715068E6
2380 2380 2.25180036E6
2380 2381 -1.12464968E6
2381 2380 -1.12715068E6
2381 2381 2.25180036E6
2381 2382 -1.12464968E6
2382 2381 -1.12715068E6
2382 2382 2.25180036E6
2382 2383 -1.12464968E6
2383 2382 -1.12715068E6
2383 2383 2.25180036E6
2383 2384 -1.12464968E6
2384 2383 -1.12715068E6
2384 2384 2.25180036E6
2384 2385 -1.12464968E6
2385 2384 -1.12715068E6
2385 2385 2.25180036E6
2385 2386 -1.12464968E6
2386 2385 -1.12715068E6
2386 2386 2.25180036E6
2386 2387 -1.12464968E6
2387 2386 -1.12715068E6
2387 2387 2.25180036E6
2387 2388 -1.12464968E6
2388 2387 -1.12715068E6
2388 2388 2.25180036E6
2388 2389 -1.12464968E6
2389 2388 -1.12715068E6
2389 2389 2.25180036E6
2389 2390 -1.12464968E6
2390 2389 -1.12715068E6
2390 2390 2.25180036E6
2390 2391 -1.12464968E6
2391 2390 -1.12715068E6
2391 2391 2.25180036E6
2391 2392 -1.12464968E6
2392 2391 -1.12715068E6
2392 2392 2.25180036E6
2392 2393 -1.12464968E6
2393 2392 -1.12715068E6
2393 2393 2.25180036E6
2393 2394 -1.12464968E6
2394 2393 -1.12715068E6
2394 2394 2.25180036E6
2394 2395 -1.12464968E6
2395 2394 -1.12715068E6
2395 2395 2.25180036E6
2395 2396 -1.12464968E6
2396 2395 -1.12715068E6
2396 2396 2.25180036E6
2396 2397 -1.12464968E6
2397 2396 -1.12715068E6
2397 2397 2.25180036E6
2397 2398 -1.12464968E6
2398 2397 -1.12715068E6
2398 2398 2.25180036E6
2398 2399 -1.12464968E6
2399 2398 -1.12715068E6
2399 2399 2.25180036E6
2399 2400 -1.12464968E6
2400 2399 -1.12715068E6
2400 2400 2.25180036E6
2400 2401 -1.12464968E6
2401 2400 -1.12715068E6
2401 2401 2.25180036E6
2401 2402 -1.12464968E6
2402 2401 -1.12715068E6
2402 2402 2.25180036E6
2402 2403 -1.12464968E6
2403 2402 -1.12715068E6
2403 2403 2.25180036E6
2403 2404 -1.12464968E6
2404 2403 -1.12715068E6
2404 2404 2.25180036E6
2404 2405 -1.12464968E6
2405 2404 -1.12715068E6
2405 2405 2.25180036E6
2405 2406 -1.12464968E6
2406 2405 -1.12715068E6
2406 2406 2.25180036E6
2406 2407 -1.12464968E6
2407 2406 -1.12715068E6
2407 2407 2.25180036E6
2407 2408 -1.12464968E6
2408 2407 -1.12715068E6
2408 2408 2.25180036E6
2408 2409 -1.12464968E6
2409 2408 -1.12715068E6
2409 2409 2.25180036E6
2409 2410 -1.12464968E6
2410 2409 -1.12715068E6
2410 2410 2.25180036E6
2410 2411 -1.12464968E6
2411 2410 -1.12715068E6
2411 2411 2.25180036E6
2411 2412 -1.12464968E6
2412 2411 -1.12715068E6
2412 2412 2.25180036E6
2412 2413 -1.12464968E6
2413 2412 -1.12715068E6
2413 2413 2.25180036E6
2413 2414 -1.12464968E6
2414 2413 -1.12715068E6
2414 2414 2.25180036E6
2414 2415 -1.12464968E6
2415 2414 -1.12715068E6
2415 2415 2.25180036E6
2415 2416 -1.12464968E6
2416 2415 -1.12715068E6
2416 2416 2.25180036E6
2416 2417 -1.12464968E6
2417 2416 -1.12715068E6
2417 2417 2.25180036E6
2417 2418 -1.12464968E6
2418 2417 -1.12715068E6
2418 2418 2.25180036E6
2418 2419 -1.12464968E6
2419 2418 -1.12715068E6
2419 2419 2.25180036E6
2419 2420 -1.12464968E6
2420 2419 -1.12715068E6
2420 2420 2.25180036E6
2420 2421 -1.12464968E6
2421 2420 -1.12715068E6
2421 2421 2.25180036E6
2421 2422 -1.12464968E6
2422 2421 -1.12715068E6
2422 2422 2.25180036E6
2422 2423 -1.12464968E6
2423 2422 -1.12715068E6
2423 2423 2.25180036E6
2423 2424 -1.12464968E6
2424 2423 -1.12715068E6
2424 2424 2.25180036E6
2424 2425 -1.12464968E6
2425 2424 -1.12715068E6
2425 2425 2.25180036E6
2425 2426 -1.12464968E6
2426 2425 -1.12715068E6
2426 2426 2.25180036E6
2426 2427 -1.12464968E6
2427 2426 -1.12715068E6
2427 2427 2.25180036E6
2427 2428 -1.12464968E6
2428 2427 -1.12715068E6
2428 2428 2.25180036E6
2428 2429 -1.12464968E6
2429 2428 -1.12715068E6
2429 2429 2.25180036E6
2429 2430 -1.12464968E6
2430 2429 -1.12715068E6
2430 2430 2.25180036E6
2430 2431 -1.12464968E6
2431 2430 -1.12715068E6
2431 2431 2.25180036E6
2431 2432 -1.12464968E6
2432 2431 -1.12715068E6
2432 2432 2.25180036E6
2432 2433 -1.12464968E6
2433 2432 -1.12715068E6
2433 2433 2.25180036E6
2433 2434 -1.12464968E6
2434 2433 -1.12715068E6
2434 2434 2.25180036E6
2434 2435 -1.12464968E6
2435 2434 -1.12715068E6
2435 2435 2.25180036E6
2435 2436 -1.12464968E6
2436 2435 -1.12715068E6
2436 2436 2.25180036E6
2436 2437 -1.12464968E6
2437 2436 -1.12715068E6
2437 2437 2.25180036E6
2437 2438 -1.12464968E6
2438 2437 -1.12715068E6
2438 2438 2.25180036E6
2438 2439 -1.12464968E6
2439 2438 -1.12715068E6
2439 2439 2.25180036E6
2439 2440 -1.12464968E6
2440 2439 -1.12715068E6
2440 2440 2.25180036E6
2440 2441 -1.12464968E6
2441 2440 -1.12715068E6
2441 2441 2.25180036E6
2441 2442 -1.12464968E6
2442 2441 -1.12715068E6
2442 2442 2.25180036E6
2442 2443 -1.12464968E6
2443 2442 -1.12715068E6
2443 2443 2.25180036E6
2443 2444 -1.12464968E6
2444 2443 -1.12715068E6
2444 2444 2.25180036E6
2444 2445 -1.12464968E6
2445 2444 -1.12715068E6
2445 2445 2.25180036E6
2445 2446 -1.12464968E6
2446 2445 -1.12715068E6
2446 2446 2.25180036E6
2446 2447 -1.12464968E6
2447 2446 -1.12715068E6
2447 2447 2.25180036E6
2447 2448 -1.12464968E6
2448 2447 -1.12715068E6
2448 2448 2.25180036E6
2448 2449 -1.12464968E6
2449 2448 -1.12715068E6
2449 2449 2.25180036E6
2449 2450 -1.12464968E6
2450 2449 -1.12715068E6
2450 2450 2.25180036E6
2450 2451 -1.12464968E6
2451 2450 -1.12715068E6
2451 2451 2.25180036E6
2451 2452 -1.12464968E6
2452 2451 -1.12715068E6
2452 2452 2.25180036E6
2452 2453 -1.12464968E6
2453 2452 -1.12715068E6
2453 2453 2.25180036E6
2453 2454 -1.12464968E6
2454 2453 -1.12715068E6
2454 2454 2.25180036E6
2454 2455 -1.12464968E6
2455 2454 -1.12715068E6
2455 2455 2.25180036E6
2455 2456 -1.12464968E6
2456 2455 -1.12715068E6
2456 2456 2.25180036E6
2456 2457 -1.12464968E6
2457 2456 -1.12715068E6
2457 2457 2.25180036E6
2457 2458 -1.12464968E6
2458 2457 -1.12715068E6
2458 2458 2.25180036E6
2458 2459 -1.12464968E6
2459 2458 -1.12715068E6
2459 2459 2.25180036E6
2459 2460 -1.12464968E6
2460 2459 -1.12715068E6
2460 2460 2.25180036E6
2460 2461 -1.12464968E6
2461 2460 -1.12715068E6
2461 2461 2.25180036E6
2461 2462 -1.12464968E6
2462 2461 -1.12715068E6
2462 2462 2.25180036E6
2462 2463 -1.12464968E6
2463 2462 -1.12715068E6
2463 2463 2.25180036E6
2463 2464 -1.12464968E6
2464 2463 -1.12715068E6
2464 2464 2.25180036E6
2464 2465 -1.12464968E6
2465 2464 -1.12715068E6
2465 2465 2.25180036E6
2465 2466 -1.12464968E6
2466 2465 -1.12715068E6
2466 2466 2.25180036E6
2466 2467 -1.12464968E6
2467 2466 -1.12715068E6
2467 2467 2.25180036E6
2467 2468 -1.12464968E6
2468 2467 -1.12715068E6
2468 2468 2.25180036E6
2468 2469 -1.12464968E6
2469 2468 -1.12715068E6
2469 2469 2.25180036E6
2469 2470 -1.12464968E6
2470 2469 -1.12715068E6
2470 2470 2.25180036E6
2470 2471 -1.12464968E6
2471 2470 -1.12715068E6
2471 2471 2.25180036E6
2471 2472 -1.12464968E6
2472 2471 -1.12715068E6
2472 2472 2.25180036E6
2472 2473 -1.12464968E6
2473 2472 -1.12715068E6
2473 2473 2.25180036E6
2473 2474 -1.12464968E6
2474 2473 -1.12715068E6
2474 2474 2.25180036E6
2474 2475 -1.12464968E6
2475 2474 -1.12715068E6
2475 2475 2.25180036E6
2475 2476 -1.12464968E6
2476 2475 -1.12715068E6
2476 2476 2.25180036E6
2476 2477 -1.12464968E6
2477 2476 -1.12715068E6
2477 2477 2.25180036E6
2477 2478 -1.12464968E6
2478 2477 -1.12715068E6
2478 2478 2.25180036E6
2478 2479 -1.12464968E6
2479 2478 -1.12715068E6
2479 2479 2.25180036E6
2479 2480 -1.12464968E6
2480 2479 -1.12715068E6
2480 2480 2.25180036E6
2480 2481 -1.12464968E6
2481 2480 -1.12715068E6
2481 2481 2.25180036E6
2481 2482 -1.12464968E6
2482 2481 -1.12715068E6
2482 2482 2.25180036E6
2482 2483 -1.12464968E6
2483 2482 -1.12715068E6
2483 2483 2.25180036E6
2483 2484 -1.12464968E6
2484 2483 -1.12715068E6
2484 2484 2.25180036E6
2484 2485 -1.12464968E6
2485 2484 -1.12715068E6
2485 2485 2.25180036E6
2485 2486 -1.12464968E6
2486 2485 -1.12715068E6
2486 2486 2.25180036E6
2486 2487 -1.12464968E6
2487 2486 -1.12715068E6
2487 2487 2.25180036E6
2487 2488 -1.12464968E6
2488 2487 -1.12715068E6
2488 2488 2.25180036E6
2488 2489 -1.12464968E6
2489 2488 -1.12715068E6
2489 2489 2.25180036E6
2489 2490 -1.12464968E6
2490 2489 -1.12715068E6
2490 2490 2.25180036E6
2490 2491 -1.12464968E6
2491 2490 -1.12715068E6
2491 2491 2.25180036E6
2491 2492 -1.12464968E6
2492 2491 -1.12715068E6
2492 2492 2.25180036E6
2492 2493 -1.12464968E6
2493 2492 -1.12715068E6
2493 2493 2.25180036E6
2493 2494 -1.12464968E6
2494 2493 -1.12715068E6
2494 2494 2.25180036E6
2494 2495 -1.12464968E6
2495 2494 -1.12715068E6
2495 2495 2.25180036E6
2495 2496 -1.12464968E6
2496 2495 -1.12715068E6
2496 2496 2.25180036E6
2496 2497 -1.12464968E6
2497 2496 -1.12715068E6
2497 2497 2.25180036E6
2497 2498 -1.12464968E6
2498 2497 -1.12715068E6
2498 2498 2.25180036E6
2498 2499 -1.12464968E6
2499 2498 -1.12715068E6
2499 2499 2.25180036E6
2499 2500 -1.12464968E6
2500 2499 -1.12715068E6
2500 2500 2.25180036E6
