%%MatrixMarket matrix coordinate real general
% 1D convection-diffusion (-eps*u'' + beta*u' = f), central FD, n=800, eps=0.15, beta=1.0, kappa~=122321
800 800 2398
1 1 1.924803E5
1 2 -9.583965E4
2 1 -9.664065E4
2 2 1.924803E5
2 3 -9.583965E4
3 2 -9.664065E4
3 3 1.924803E5
3 4 -9.583965E4
4 3 -9.664065E4
4 4 1.924803E5
4 5 -9.583965E4
5 4 -9.664065E4
5 5 1.924803E5
5 6 -9.583965E4
6 5 -9.664065E4
6 6 1.924803E5
6 7 -9.583965E4
7 6 -9.664065E4
7 7 1.924803E5
7 8 -9.583965E4
8 7 -9.664065E4
8 8 1.924803E5
8 9 -9.583965E4
9 8 -9.664065E4
9 9 1.924803E5
9 10 -9.583965E4
10 9 -9.664065E4
10 10 1.924803E5
10 11 -9.583965E4
11 10 -9.664065E4
11 11 1.924803E5
11 12 -9.583965E4
12 11 -9.664065E4
12 12 1.924803E5
12 13 -9.583965E4
13 12 -9.664065E4
13 13 1.924803E5
13 14 -9.583965E4
14 13 -9.664065E4
14 14 1.924803E5
14 15 -9.583965E4
15 14 -9.664065E4
15 15 1.924803E5
15 16 -9.583965E4
16 15 -9.664065E4
16 16 1.924803E5
16 17 -9.583965E4
17 16 -9.664065E4
17 17 1.924803E5
17 18 -9.583965E4
18 17 -9.664065E4
18 18 1.924803E5
18 19 -9.583965E4
19 18 -9.664065E4
19 19 1.924803E5
19 20 -9.583965E4
20 19 -9.664065E4
20 20 1.924803E5
20 21 -9.583965E4
21 20 -9.664065E4
21 21 1.924803E5
21 22 -9.583965E4
22 21 -9.664065E4
22 22 1.924803E5
22 23 -9.583965E4
23 22 -9.664065E4
23 23 1.924803E5
23 24 -9.583965E4
24 23 -9.664065E4
24 24 1.924803E5
24 25 -9.583965E4
25 24 -9.664065E4
25 25 1.924803E5
25 26 -9.583965E4
26 25 -9.664065E4
26 26 1.924803E5
26 27 -9.583965E4
27 26 -9.664065E4
27 27 1.924803E5
27 28 -9.583965E4
28 27 -9.664065E4
28 28 1.924803E5
28 29 -9.583965E4
29 28 -9.664065E4
29 29 1.924803E5
29 30 -9.583965E4
30 29 -9.664065E4
30 30 1.924803E5
30 31 -9.583965E4
31 30 -9.664065E4
31 31 1.924803E5
31 32 -9.583965E4
32 31 -9.664065E4
32 32 1.924803E5
32 33 -9.583965E4
33 32 -9.664065E4
33 33 1.924803E5
33 34 -9.583965E4
34 33 -9.664065E4
34 34 1.924803E5
34 35 -9.583965E4
35 34 -9.664065E4
35 35 1.924803E5
35 36 -9.583965E4
36 35 -9.664065E4
36 36 1.924803E5
36 37 -9.583965E4
37 36 -9.664065E4
37 37 1.924803E5
37 38 -9.583965E4
38 37 -9.664065E4
38 38 1.924803E5
38 39 -9.583965E4
39 38 -9.664065E4
39 39 1.924803E5
39 40 -9.583965E4
40 39 -9.664065E4
40 40 1.924803E5
40 41 -9.583965E4
41 40 -9.664065E4
41 41 1.924803E5
41 42 -9.583965E4
42 41 -9.664065E4
42 42 1.924803E5
42 43 -9.583965E4
43 42 -9.664065E4
43 43 1.924803E5
43 44 -9.583965E4
44 43 -9.664065E4
44 44 1.924803E5
44 45 -9.583965E4
45 44 -9.664065E4
45 45 1.924803E5
45 46 -9.583965E4
46 45 -9.664065E4
46 46 1.924803E5
46 47 -9.583965E4
47 46 -9.664065E4
47 47 1.924803E5
47 48 -9.583965E4
48 47 -9.664065E4
48 48 1.924803E5
48 49 -9.583965E4
49 48 -9.664065E4
49 49 1.924803E5
49 50 -9.583965E4
50 49 -9.664065E4
50 50 1.924803E5
50 51 -9.583965E4
51 50 -9.664065E4
51 51 1.924803E5
51 52 -9.583965E4
52 51 -9.664065E4
52 52 1.924803E5
52 53 -9.583965E4
53 52 -9.664065E4
53 53 1.924803E5
53 54 -9.583965E4
54 53 -9.664065E4
54 54 1.924803E5
54 55 -9.583965E4
55 54 -9.664065E4
55 55 1.924803E5
55 56 -9.583965E4
56 55 -9.664065E4
56 56 1.924803E5
56 57 -9.583965E4
57 56 -9.664065E4
57 57 1.924803E5
57 58 -9.583965E4
58 57 -9.664065E4
58 58 1.924803E5
58 59 -9.583965E4
59 58 -9.664065E4
59 59 1.924803E5
59 60 -9.583965E4
60 59 -9.664065E4
60 60 1.924803E5
60 61 -9.583965E4
61 60 -9.664065E4
61 61 1.924803E5
61 62 -9.583965E4
62 61 -9.664065E4
62 62 1.924803E5
62 63 -9.583965E4
63 62 -9.664065E4
63 63 1.924803E5
63 64 -9.583965E4
64 63 -9.664065E4
64 64 1.924803E5
64 65 -9.583965E4
65 64 -9.664065E4
65 65 1.924803E5
65 66 -9.583965E4
66 65 -9.664065E4
66 66 1.924803E5
66 67 -9.583965E4
67 66 -9.664065E4
67 67 1.924803E5
67 68 -9.583965E4
68 67 -9.664065E4
68 68 1.924803E5
68 69 -9.583965E4
69 68 -9.664065E4
69 69 1.924803E5
69 70 -9.583965E4
70 69 -9.664065E4
70 70 1.924803E5
70 71 -9.583965E4
71 70 -9.664065E4
71 71 1.924803E5
71 72 -9.583965E4
72 71 -9.664065E4
72 72 1.924803E5
72 73 -9.583965E4
73 72 -9.664065E4
73 73 1.924803E5
73 74 -9.583965E4
74 73 -9.664065E4
74 74 1.924803E5
74 75 -9.583965E4
75 74 -9.664065E4
75 75 1.924803E5
75 76 -9.583965E4
76 75 -9.664065E4
76 76 1.924803E5
76 77 -9.583965E4
77 76 -9.664065E4
77 77 1.924803E5
77 78 -9.583965E4
78 77 -9.664065E4
78 78 1.924803E5
78 79 -9.583965E4
79 78 -9.664065E4
79 79 1.924803E5
79 80 -9.583965E4
80 79 -9.664065E4
80 80 1.924803E5
80 81 -9.583965E4
81 80 -9.664065E4
81 81 1.924803E5
81 82 -9.583965E4
82 81 -9.664065E4
82 82 1.924803E5
82 83 -9.583965E4
83 82 -9.664065E4
83 83 1.924803E5
83 84 -9.583965E4
84 83 -9.664065E4
84 84 1.924803E5
84 85 -9.583965E4
85 84 -9.664065E4
85 85 1.924803E5
85 86 -9.583965E4
86 85 -9.664065E4
86 86 1.924803E5
86 87 -9.583965E4
87 86 -9.664065E4
87 87 1.924803E5
87 88 -9.583965E4
88 87 -9.664065E4
88 88 1.924803E5
88 89 -9.583965E4
89 88 -9.664065E4
89 89 1.924803E5
89 90 -9.583965E4
90 89 -9.664065E4
90 90 1.924803E5
90 91 -9.583965E4
91 90 -9.664065E4
91 91 1.924803E5
91 92 -9.583965E4
92 91 -9.664065E4
92 92 1.924803E5
92 93 -9.583965E4
93 92 -9.664065E4
93 93 1.924803E5
93 94 -9.583965E4
94 93 -9.664065E4
94 94 1.924803E5
94 95 -9.583965E4
95 94 -9.664065E4
95 95 1.924803E5
95 96 -9.583965E4
96 95 -9.664065E4
96 96 1.924803E5
96 97 -9.583965E4
97 96 -9.664065E4
97 97 1.924803E5
97 98 -9.583965E4
98 97 -9.664065E4
98 98 1.924803E5
98 99 -9.583965E4
99 98 -9.664065E4
99 99 1.924803E5
99 100 -9.583965E4
100 99 -9.664065E4
100 100 1.924803E5
100 101 -9.583965E4
101 100 -9.664065E4
101 101 1.924803E5
101 102 -9.583965E4
102 101 -9.664065E4
102 102 1.924803E5
102 103 -9.583965E4
103 102 -9.664065E4
103 103 1.924803E5
103 104 -9.583965E4
104 103 -9.664065E4
104 104 1.924803E5
104 105 -9.583965E4
105 104 -9.664065E4
105 105 1.924803E5
105 106 -9.583965E4
106 105 -9.664065E4
106 106 1.924803E5
106 107 -9.583965E4
107 106 -9.664065E4
107 107 1.924803E5
107 108 -9.583965E4
108 107 -9.664065E4
108 108 1.924803E5
108 109 -9.583965E4
109 108 -9.664065E4
109 109 1.924803E5
109 110 -9.583965E4
110 109 -9.664065E4
110 110 1.924803E5
110 111 -9.583965E4
111 110 -9.664065E4
111 111 1.924803E5
111 112 -9.583965E4
112 111 -9.664065E4
112 112 1.924803E5
112 113 -9.583965E4
113 112 -9.664065E4
113 113 1.924803E5
113 114 -9.583965E4
114 113 -9.664065E4
114 114 1.924803E5
114 115 -9.583965E4
115 114 -9.664065E4
115 115 1.924803E5
115 116 -9.583965E4
116 115 -9.664065E4
116 116 1.924803E5
116 117 -9.583965E4
117 116 -9.664065E4
117 117 1.924803E5
117 118 -9.583965E4
118 117 -9.664065E4
118 118 1.924803E5
118 119 -9.583965E4
119 118 -9.664065E4
119 119 1.924803E5
119 120 -9.583965E4
120 119 -9.664065E4
120 120 1.924803E5
120 121 -9.583965E4
121 120 -9.664065E4
121 121 1.924803E5
121 122 -9.583965E4
122 121 -9.664065E4
122 122 1.924803E5
122 123 -9.583965E4
123 122 -9.664065E4
123 123 1.924803E5
123 124 -9.583965E4
124 123 -9.664065E4
124 124 1.924803E5
124 125 -9.583965E4
125 124 -9.664065E4
125 125 1.924803E5
125 126 -9.583965E4
126 125 -9.664065E4
126 126 1.924803E5
126 127 -9.583965E4
127 126 -9.664065E4
127 127 1.924803E5
127 128 -9.583965E4
128 127 -9.664065E4
128 128 1.924803E5
128 129 -9.583965E4
129 128 -9.664065E4
129 129 1.924803E5
129 130 -9.583965E4
130 129 -9.664065E4
130 130 1.924803E5
130 131 -9.583965E4
131 130 -9.664065E4
131 131 1.924803E5
131 132 -9.583965E4
132 131 -9.664065E4
132 132 1.924803E5
132 133 -9.583965E4
133 132 -9.664065E4
133 133 1.924803E5
133 134 -9.583965E4
134 133 -9.664065E4
134 134 1.924803E5
134 135 -9.583965E4
135 134 -9.664065E4
135 135 1.924803E5
135 136 -9.583965E4
136 135 -9.664065E4
136 136 1.924803E5
136 137 -9.583965E4
137 136 -9.664065E4
137 137 1.924803E5
137 138 -9.583965E4
138 137 -9.664065E4
138 138 1.924803E5
138 139 -9.583965E4
139 138 -9.664065E4
139 139 1.924803E5
139 140 -9.583965E4
140 139 -9.664065E4
140 140 1.924803E5
140 141 -9.583965E4
141 140 -9.664065E4
141 141 1.924803E5
141 142 -9.583965E4
142 141 -9.664065E4
142 142 1.924803E5
142 143 -9.583965E4
143 142 -9.664065E4
143 143 1.924803E5
143 144 -9.583965E4
144 143 -9.664065E4
144 144 1.924803E5
144 145 -9.583965E4
145 144 -9.664065E4
145 145 1.924803E5
145 146 -9.583965E4
146 145 -9.664065E4
146 146 1.924803E5
146 147 -9.583965E4
147 146 -9.664065E4
147 147 1.924803E5
147 148 -9.583965E4
148 147 -9.664065E4
148 148 1.924803E5
148 149 -9.583965E4
149 148 -9.664065E4
149 149 1.924803E5
149 150 -9.583965E4
150 149 -9.664065E4
150 150 1.924803E5
150 151 -9.583965E4
151 150 -9.664065E4
151 151 1.924803E5
151 152 -9.583965E4
152 151 -9.664065E4
152 152 1.924803E5
152 153 -9.583965E4
153 152 -9.664065E4
153 153 1.924803E5
153 154 -9.583965E4
154 153 -9.664065E4
154 154 1.924803E5
154 155 -9.583965E4
155 154 -9.664065E4
155 155 1.924803E5
155 156 -9.583965E4
156 155 -9.664065E4
156 156 1.924803E5
156 157 -9.583965E4
157 156 -9.664065E4
157 157 1.924803E5
157 158 -9.583965E4
158 157 -9.664065E4
158 158 1.924803E5
158 159 -9.583965E4
159 158 -9.664065E4
159 159 1.924803E5
159 160 -9.583965E4
160 159 -9.664065E4
160 160 1.924803E5
160 161 -9.583965E4
161 160 -9.664065E4
161 161 1.924803E5
161 162 -9.583965E4
162 161 -9.664065E4
162 162 1.924803E5
162 163 -9.583965E4
163 162 -9.664065E4
163 163 1.924803E5
163 164 -9.583965E4
164 163 -9.664065E4
164 164 1.924803E5
164 165 -9.583965E4
165 164 -9.664065E4
165 165 1.924803E5
165 166 -9.583965E4
166 165 -9.664065E4
166 166 1.924803E5
166 167 -9.583965E4
167 166 -9.664065E4
167 167 1.924803E5
167 168 -9.583965E4
168 167 -9.664065E4
168 168 1.924803E5
168 169 -9.583965E4
169 168 -9.664065E4
169 169 1.924803E5
169 170 -9.583965E4
170 169 -9.664065E4
170 170 1.924803E5
170 171 -9.583965E4
171 170 -9.664065E4
171 171 1.924803E5
171 172 -9.583965E4
172 171 -9.664065E4
172 172 1.924803E5
172 173 -9.583965E4
173 172 -9.664065E4
173 173 1.924803E5
173 174 -9.583965E4
174 173 -9.664065E4
174 174 1.924803E5
174 175 -9.583965E4
175 174 -9.664065E4
175 175 1.924803E5
175 176 -9.583965E4
176 175 -9.664065E4
176 176 1.924803E5
176 177 -9.583965E4
177 176 -9.664065E4
177 177 1.924803E5
177 178 -9.583965E4
178 177 -9.664065E4
178 178 1.924803E5
178 179 -9.583965E4
179 178 -9.664065E4
179 179 1.924803E5
179 180 -9.583965E4
180 179 -9.664065E4
180 180 1.924803E5
180 181 -9.583965E4
181 180 -9.664065E4
181 181 1.924803E5
181 182 -9.583965E4
182 181 -9.664065E4
182 182 1.924803E5
182 183 -9.583965E4
183 182 -9.664065E4
183 183 1.924803E5
183 184 -9.583965E4
184 183 -9.664065E4
184 184 1.924803E5
184 185 -9.583965E4
185 184 -9.664065E4
185 185 1.924803E5
185 186 -9.583965E4
186 185 -9.664065E4
186 186 1.924803E5
186 187 -9.583965E4
187 186 -9.664065E4
187 187 1.924803E5
187 188 -9.583965E4
188 187 -9.664065E4
188 188 1.924803E5
188 189 -9.583965E4
189 188 -9.664065E4
189 189 1.924803E5
189 190 -9.583965E4
190 189 -9.664065E4
190 190 1.924803E5
190 191 -9.583965E4
191 190 -9.664065E4
191 191 1.924803E5
191 192 -9.583965E4
192 191 -9.664065E4
192 192 1.924803E5
192 193 -9.583965E4
193 192 -9.664065E4
193 193 1.924803E5
193 194 -9.583965E4
194 193 -9.664065E4
194 194 1.924803E5
194 195 -9.583965E4
195 194 -9.664065E4
195 195 1.924803E5
195 196 -9.583965E4
196 195 -9.664065E4
196 196 1.924803E5
196 197 -9.583965E4
197 196 -9.664065E4
197 197 1.924803E5
197 198 -9.583965E4
198 197 -9.664065E4
198 198 1.924803E5
198 199 -9.583965E4
199 198 -9.664065E4
199 199 1.924803E5
199 200 -9.583965E4
200 199 -9.664065E4
200 200 1.924803E5
200 201 -9.583965E4
201 200 -9.664065E4
201 201 1.924803E5
201 202 -9.583965E4
202 201 -9.664065E4
202 202 1.924803E5
202 203 -9.583965E4
203 202 -9.664065E4
203 203 1.924803E5
203 204 -9.583965E4
204 203 -9.664065E4
204 204 1.924803E5
204 205 -9.583965E4
205 204 -9.664065E4
205 205 1.924803E5
205 206 -9.583965E4
206 205 -9.664065E4
206 206 1.924803E5
206 207 -9.583965E4
207 206 -9.664065E4
207 207 1.924803E5
207 208 -9.583965E4
208 207 -9.664065E4
208 208 1.924803E5
208 209 -9.583965E4
209 208 -9.664065E4
209 209 1.924803E5
209 210 -9.583965E4
210 209 -9.664065E4
210 210 1.924803E5
210 211 -9.583965E4
211 210 -9.664065E4
211 211 1.924803E5
211 212 -9.583965E4
212 211 -9.664065E4
212 212 1.924803E5
212 213 -9.583965E4
213 212 -9.664065E4
213 213 1.924803E5
213 214 -9.583965E4
214 213 -9.664065E4
214 214 1.924803E5
214 215 -9.583965E4
215 214 -9.664065E4
215 215 1.924803E5
215 216 -9.583965E4
216 215 -9.664065E4
216 216 1.924803E5
216 217 -9.583965E4
217 216 -9.664065E4
217 217 1.924803E5
217 218 -9.583965E4
218 217 -9.664065E4
218 218 1.924803E5
218 219 -9.583965E4
219 218 -9.664065E4
219 219 1.924803E5
219 220 -9.583965E4
220 219 -9.664065E4
220 220 1.924803E5
220 221 -9.583965E4
221 220 -9.664065E4
221 221 1.924803E5
221 222 -9.583965E4
222 221 -9.664065E4
222 222 1.924803E5
222 223 -9.583965E4
223 222 -9.664065E4
223 223 1.924803E5
223 224 -9.583965E4
224 223 -9.664065E4
224 224 1.924803E5
224 225 -9.583965E4
225 224 -9.664065E4
225 225 1.924803E5
225 226 -9.583965E4
226 225 -9.664065E4
226 226 1.924803E5
226 227 -9.583965E4
227 226 -9.664065E4
227 227 1.924803E5
227 228 -9.583965E4
228 227 -9.664065E4
228 228 1.924803E5
228 229 -9.583965E4
229 228 -9.664065E4
229 229 1.924803E5
229 230 -9.583965E4
230 229 -9.664065E4
230 230 1.924803E5
230 231 -9.583965E4
231 230 -9.664065E4
231 231 1.924803E5
231 232 -9.583965E4
232 231 -9.664065E4
232 232 1.924803E5
232 233 -9.583965E4
233 232 -9.664065E4
233 233 1.924803E5
233 234 -9.583965E4
234 233 -9.664065E4
234 234 1.924803E5
234 235 -9.583965E4
235 234 -9.664065E4
235 235 1.924803E5
235 236 -9.583965E4
236 235 -9.664065E4
236 236 1.924803E5
236 237 -9.583965E4
237 236 -9.664065E4
237 237 1.924803E5
237 238 -9.583965E4
238 237 -9.664065E4
238 238 1.924803E5
238 239 -9.583965E4
239 238 -9.664065E4
239 239 1.924803E5
239 240 -9.583965E4
240 239 -9.664065E4
240 240 1.924803E5
240 241 -9.583965E4
241 240 -9.664065E4
241 241 1.924803E5
241 242 -9.583965E4
242 241 -9.664065E4
242 242 1.924803E5
242 243 -9.583965E4
243 242 -9.664065E4
243 243 1.924803E5
243 244 -9.583965E4
244 243 -9.664065E4
244 244 1.924803E5
244 245 -9.583965E4
245 244 -9.664065E4
245 245 1.924803E5
245 246 -9.583965E4
246 245 -9.664065E4
246 246 1.924803E5
246 247 -9.583965E4
247 246 -9.664065E4
247 247 1.924803E5
247 248 -9.583965E4
248 247 -9.664065E4
248 248 1.924803E5
248 249 -9.583965E4
249 248 -9.664065E4
249 249 1.924803E5
249 250 -9.583965E4
250 249 -9.664065E4
250 250 1.924803E5
250 251 -9.583965E4
251 250 -9.664065E4
251 251 1.924803E5
251 252 -9.583965E4
252 251 -9.664065E4
252 252 1.924803E5
252 253 -9.583965E4
253 252 -9.664065E4
253 253 1.924803E5
253 254 -9.583965E4
254 253 -9.664065E4
254 254 1.924803E5
254 255 -9.583965E4
255 254 -9.664065E4
255 255 1.924803E5
255 256 -9.583965E4
256 255 -9.664065E4
256 256 1.924803E5
256 257 -9.583965E4
257 256 -9.664065E4
257 257 1.924803E5
257 258 -9.583965E4
258 257 -9.664065E4
258 258 1.924803E5
258 259 -9.583965E4
259 258 -9.664065E4
259 259 1.924803E5
259 260 -9.583965E4
260 259 -9.664065E4
260 260 1.924803E5
260 261 -9.583965E4
261 260 -9.664065E4
261 261 1.924803E5
261 262 -9.583965E4
262 261 -9.664065E4
262 262 1.924803E5
262 263 -9.583965E4
263 262 -9.664065E4
263 263 1.924803E5
263 264 -9.583965E4
264 263 -9.664065E4
264 264 1.924803E5
264 265 -9.583965E4
265 264 -9.664065E4
265 265 1.924803E5
265 266 -9.583965E4
266 265 -9.664065E4
266 266 1.924803E5
266 267 -9.583965E4
267 266 -9.664065E4
267 267 1.924803E5
267 268 -9.583965E4
268 267 -9.664065E4
268 268 1.924803E5
268 269 -9.583965E4
269 268 -9.664065E4
269 269 1.924803E5
269 270 -9.583965E4
270 269 -9.664065E4
270 270 1.924803E5
270 271 -9.583965E4
271 270 -9.664065E4
271 271 1.924803E5
271 272 -9.583965E4
272 271 -9.664065E4
272 272 1.924803E5
272 273 -9.583965E4
273 272 -9.664065E4
273 273 1.924803E5
273 274 -9.583965E4
274 273 -9.664065E4
274 274 1.924803E5
274 275 -9.583965E4
275 274 -9.664065E4
275 275 1.924803E5
275 276 -9.583965E4
276 275 -9.664065E4
276 276 1.924803E5
276 277 -9.583965E4
277 276 -9.664065E4
277 277 1.924803E5
277 278 -9.583965E4
278 277 -9.664065E4
278 278 1.924803E5
278 279 -9.583965E4
279 278 -9.664065E4
279 279 1.924803E5
279 280 -9.583965E4
280 279 -9.664065E4
280 280 1.924803E5
280 281 -9.583965E4
281 280 -9.664065E4
281 281 1.924803E5
281 282 -9.583965E4
282 281 -9.664065E4
282 282 1.924803E5
282 283 -9.583965E4
283 282 -9.664065E4
283 283 1.924803E5
283 284 -9.583965E4
284 283 -9.664065E4
284 284 1.924803E5
284 285 -9.583965E4
285 284 -9.664065E4
285 285 1.924803E5
285 286 -9.583965E4
286 285 -9.664065E4
286 286 1.924803E5
286 287 -9.583965E4
287 286 -9.664065E4
287 287 1.924803E5
287 288 -9.583965E4
288 287 -9.664065E4
288 288 1.924803E5
288 289 -9.583965E4
289 288 -9.664065E4
289 289 1.924803E5
289 290 -9.583965E4
290 289 -9.664065E4
290 290 1.924803E5
290 291 -9.583965E4
291 290 -9.664065E4
291 291 1.924803E5
291 292 -9.583965E4
292 291 -9.664065E4
292 292 1.924803E5
292 293 -9.583965E4
293 292 -9.664065E4
293 293 1.924803E5
293 294 -9.583965E4
294 293 -9.664065E4
294 294 1.924803E5
294 295 -9.583965E4
295 294 -9.664065E4
295 295 1.924803E5
295 296 -9.583965E4
296 295 -9.664065E4
296 296 1.924803E5
296 297 -9.583965E4
297 296 -9.664065E4
297 297 1.924803E5
297 298 -9.583965E4
298 297 -9.664065E4
298 298 1.924803E5
298 299 -9.583965E4
299 298 -9.664065E4
299 299 1.924803E5
299 300 -9.583965E4
300 299 -9.664065E4
300 300 1.924803E5
300 301 -9.583965E4
301 300 -9.664065E4
301 301 1.924803E5
301 302 -9.583965E4
302 301 -9.664065E4
302 302 1.924803E5
302 303 -9.583965E4
303 302 -9.664065E4
303 303 1.924803E5
303 304 -9.583965E4
304 303 -9.664065E4
304 304 1.924803E5
304 305 -9.583965E4
305 304 -9.664065E4
305 305 1.924803E5
305 306 -9.583965E4
306 305 -9.664065E4
306 306 1.924803E5
306 307 -9.583965E4
307 306 -9.664065E4
307 307 1.924803E5
307 308 -9.583965E4
308 307 -9.664065E4
308 308 1.924803E5
308 309 -9.583965E4
309 308 -9.664065E4
309 309 1.924803E5
309 310 -9.583965E4
310 309 -9.664065E4
310 310 1.924803E5
310 311 -9.583965E4
311 310 -9.664065E4
311 311 1.924803E5
311 312 -9.583965E4
312 311 -9.664065E4
312 312 1.924803E5
312 313 -9.583965E4
313 312 -9.664065E4
313 313 1.924803E5
313 314 -9.583965E4
314 313 -9.664065E4
314 314 1.924803E5
314 315 -9.583965E4
315 314 -9.664065E4
315 315 1.924803E5
315 316 -9.583965E4
316 315 -9.664065E4
316 316 1.924803E5
316 317 -9.583965E4
317 316 -9.664065E4
317 317 1.924803E5
317 318 -9.583965E4
318 317 -9.664065E4
318 318 1.924803E5
318 319 -9.583965E4
319 318 -9.664065E4
319 319 1.924803E5
319 320 -9.583965E4
320 319 -9.664065E4
320 320 1.924803E5
320 321 -9.583965E4
321 320 -9.664065E4
321 321 1.924803E5
321 322 -9.583965E4
322 321 -9.664065E4
322 322 1.924803E5
322 323 -9.583965E4
323 322 -9.664065E4
323 323 1.924803E5
323 324 -9.583965E4
324 323 -9.664065E4
324 324 1.924803E5
324 325 -9.583965E4
325 324 -9.664065E4
325 325 1.924803E5
325 326 -9.583965E4
326 325 -9.664065E4
326 326 1.924803E5
326 327 -9.583965E4
327 326 -9.664065E4
327 327 1.924803E5
327 328 -9.583965E4
328 327 -9.664065E4
328 328 1.924803E5
328 329 -9.583965E4
329 328 -9.664065E4
329 329 1.924803E5
329 330 -9.583965E4
330 329 -9.664065E4
330 330 1.924803E5
330 331 -9.583965E4
331 330 -9.664065E4
331 331 1.924803E5
331 332 -9.583965E4
332 331 -9.664065E4
332 332 1.924803E5
332 333 -9.583965E4
333 332 -9.664065E4
333 333 1.924803E5
333 334 -9.583965E4
334 333 -9.664065E4
334 334 1.924803E5
334 335 -9.583965E4
335 334 -9.664065E4
335 335 1.924803E5
335 336 -9.583965E4
336 335 -9.664065E4
336 336 1.924803E5
336 337 -9.583965E4
337 336 -9.664065E4
337 337 1.924803E5
337 338 -9.583965E4
338 337 -9.664065E4
338 338 1.924803E5
338 339 -9.583965E4
339 338 -9.664065E4
339 339 1.924803E5
339 340 -9.583965E4
340 339 -9.664065E4
340 340 1.924803E5
340 341 -9.583965E4
341 340 -9.664065E4
341 341 1.924803E5
341 342 -9.583965E4
342 341 -9.664065E4
342 342 1.924803E5
342 343 -9.583965E4
343 342 -9.664065E4
343 343 1.924803E5
343 344 -9.583965E4
344 343 -9.664065E4
344 344 1.924803E5
344 345 -9.583965E4
345 344 -9.664065E4
345 345 1.924803E5
345 346 -9.583965E4
346 345 -9.664065E4
346 346 1.924803E5
346 347 -9.583965E4
347 346 -9.664065E4
347 347 1.924803E5
347 348 -9.583965E4
348 347 -9.664065E4
348 348 1.924803E5
348 349 -9.583965E4
349 348 -9.664065E4
349 349 1.924803E5
349 350 -9.583965E4
350 349 -9.664065E4
350 350 1.924803E5
350 351 -9.583965E4
351 350 -9.664065E4
351 351 1.924803E5
351 352 -9.583965E4
352 351 -9.664065E4
352 352 1.924803E5
352 353 -9.583965E4
353 352 -9.664065E4
353 353 1.924803E5
353 354 -9.583965E4
354 353 -9.664065E4
354 354 1.924803E5
354 355 -9.583965E4
355 354 -9.664065E4
355 355 1.924803E5
355 356 -9.583965E4
356 355 -9.664065E4
356 356 1.924803E5
356 357 -9.583965E4
357 356 -9.664065E4
357 357 1.924803E5
357 358 -9.583965E4
358 357 -9.664065E4
358 358 1.924803E5
358 359 -9.583965E4
359 358 -9.664065E4
359 359 1.924803E5
359 360 -9.583965E4
360 359 -9.664065E4
360 360 1.924803E5
360 361 -9.583965E4
361 360 -9.664065E4
361 361 1.924803E5
361 362 -9.583965E4
362 361 -9.664065E4
362 362 1.924803E5
362 363 -9.583965E4
363 362 -9.664065E4
363 363 1.924803E5
363 364 -9.583965E4
364 363 -9.664065E4
364 364 1.924803E5
364 365 -9.583965E4
365 364 -9.664065E4
365 365 1.924803E5
365 366 -9.583965E4
366 365 -9.664065E4
366 366 1.924803E5
366 367 -9.583965E4
367 366 -9.664065E4
367 367 1.924803E5
367 368 -9.583965E4
368 367 -9.664065E4
368 368 1.924803E5
368 369 -9.583965E4
369 368 -9.664065E4
369 369 1.924803E5
369 370 -9.583965E4
370 369 -9.664065E4
370 370 1.924803E5
370 371 -9.583965E4
371 370 -9.664065E4
371 371 1.924803E5
371 372 -9.583965E4
372 371 -9.664065E4
372 372 1.924803E5
372 373 -9.583965E4
373 372 -9.664065E4
373 373 1.924803E5
373 374 -9.583965E4
374 373 -9.664065E4
374 374 1.924803E5
374 375 -9.583965E4
375 374 -9.664065E4
375 375 1.924803E5
375 376 -9.583965E4
376 375 -9.664065E4
376 376 1.924803E5
376 377 -9.583965E4
377 376 -9.664065E4
377 377 1.924803E5
377 378 -9.583965E4
378 377 -9.664065E4
378 378 1.924803E5
378 379 -9.583965E4
379 378 -9.664065E4
379 379 1.924803E5
379 380 -9.583965E4
380 379 -9.664065E4
380 380 1.924803E5
380 381 -9.583965E4
381 380 -9.664065E4
381 381 1.924803E5
381 382 -9.583965E4
382 381 -9.664065E4
382 382 1.924803E5
382 383 -9.583965E4
383 382 -9.664065E4
383 383 1.924803E5
383 384 -9.583965E4
384 383 -9.664065E4
384 384 1.924803E5
384 385 -9.583965E4
385 384 -9.664065E4
385 385 1.924803E5
385 386 -9.583965E4
386 385 -9.664065E4
386 386 1.924803E5
386 387 -9.583965E4
387 386 -9.664065E4
387 387 1.924803E5
387 388 -9.583965E4
388 387 -9.664065E4
388 388 1.924803E5
388 389 -9.583965E4
389 388 -9.664065E4
389 389 1.924803E5
389 390 -9.583965E4
390 389 -9.664065E4
390 390 1.924803E5
390 391 -9.583965E4
391 390 -9.664065E4
391 391 1.924803E5
391 392 -9.583965E4
392 391 -9.664065E4
392 392 1.924803E5
392 393 -9.583965E4
393 392 -9.664065E4
393 393 1.924803E5
393 394 -9.583965E4
394 393 -9.664065E4
394 394 1.924803E5
394 395 -9.583965E4
395 394 -9.664065E4
395 395 1.924803E5
395 396 -9.583965E4
396 395 -9.664065E4
396 396 1.924803E5
396 397 -9.583965E4
397 396 -9.664065E4
397 397 1.924803E5
397 398 -9.583965E4
398 397 -9.664065E4
398 398 1.924803E5
398 399 -9.583965E4
399 398 -9.664065E4
399 399 1.924803E5
399 400 -9.583965E4
400 399 -9.664065E4
400 400 1.924803E5
400 401 -9.583965E4
401 400 -9.664065E4
401 401 1.924803E5
401 402 -9.583965E4
402 401 -9.664065E4
402 402 1.924803E5
402 403 -9.583965E4
403 402 -9.664065E4
403 403 1.924803E5
403 404 -9.583965E4
404 403 -9.664065E4
404 404 1.924803E5
404 405 -9.583965E4
405 404 -9.664065E4
405 405 1.924803E5
405 406 -9.583965E4
406 405 -9.664065E4
406 406 1.924803E5
406 407 -9.583965E4
407 406 -9.664065E4
407 407 1.924803E5
407 408 -9.583965E4
408 407 -9.664065E4
408 408 1.924803E5
408 409 -9.583965E4
409 408 -9.664065E4
409 409 1.924803E5
409 410 -9.583965E4
410 409 -9.664065E4
410 410 1.924803E5
410 411 -9.583965E4
411 410 -9.664065E4
411 411 1.924803E5
411 412 -9.583965E4
412 411 -9.664065E4
412 412 1.924803E5
412 413 -9.583965E4
413 412 -9.664065E4
413 413 1.924803E5
413 414 -9.583965E4
414 413 -9.664065E4
414 414 1.924803E5
414 415 -9.583965E4
415 414 -9.664065E4
415 415 1.924803E5
415 416 -9.583965E4
416 415 -9.664065E4
416 416 1.924803E5
416 417 -9.583965E4
417 416 -9.664065E4
417 417 1.924803E5
417 418 -9.583965E4
418 417 -9.664065E4
418 418 1.924803E5
418 419 -9.583965E4
419 418 -9.664065E4
419 419 1.924803E5
419 420 -9.583965E4
420 419 -9.664065E4
420 420 1.924803E5
420 421 -9.583965E4
421 420 -9.664065E4
421 421 1.924803E5
421 422 -9.583965E4
422 421 -9.664065E4
422 422 1.924803E5
422 423 -9.583965E4
423 422 -9.664065E4
423 423 1.924803E5
423 424 -9.583965E4
424 423 -9.664065E4
424 424 1.924803E5
424 425 -9.583965E4
425 424 -9.664065E4
425 425 1.924803E5
425 426 -9.583965E4
426 425 -9.664065E4
426 426 1.924803E5
426 427 -9.583965E4
427 426 -9.664065E4
427 427 1.924803E5
427 428 -9.583965E4
428 427 -9.664065E4
428 428 1.924803E5
428 429 -9.583965E4
429 428 -9.664065E4
429 429 1.924803E5
429 430 -9.583965E4
430 429 -9.664065E4
430 430 1.924803E5
430 431 -9.583965E4
431 430 -9.664065E4
431 431 1.924803E5
431 432 -9.583965E4
432 431 -9.664065E4
432 432 1.924803E5
432 433 -9.583965E4
433 432 -9.664065E4
433 433 1.924803E5
433 434 -9.583965E4
434 433 -9.664065E4
434 434 1.924803E5
434 435 -9.583965E4
435 434 -9.664065E4
435 435 1.924803E5
435 436 -9.583965E4
436 435 -9.664065E4
436 436 1.924803E5
436 437 -9.583965E4
437 436 -9.664065E4
437 437 1.924803E5
437 438 -9.583965E4
438 437 -9.664065E4
438 438 1.924803E5
438 439 -9.583965E4
439 438 -9.664065E4
439 439 1.924803E5
439 440 -9.583965E4
440 439 -9.664065E4
440 440 1.924803E5
440 441 -9.583965E4
441 440 -9.664065E4
441 441 1.924803E5
441 442 -9.583965E4
442 441 -9.664065E4
442 442 1.924803E5
442 443 -9.583965E4
443 442 -9.664065E4
443 443 1.924803E5
443 444 -9.583965E4
444 443 -9.664065E4
444 444 1.924803E5
444 445 -9.583965E4
445 444 -9.664065E4
445 445 1.924803E5
445 446 -9.583965E4
446 445 -9.664065E4
446 446 1.924803E5
446 447 -9.583965E4
447 446 -9.664065E4
447 447 1.924803E5
447 448 -9.583965E4
448 447 -9.664065E4
448 448 1.924803E5
448 449 -9.583965E4
449 448 -9.664065E4
449 449 1.924803E5
449 450 -9.583965E4
450 449 -9.664065E4
450 450 1.924803E5
450 451 -9.583965E4
451 450 -9.664065E4
451 451 1.924803E5
451 452 -9.583965E4
452 451 -9.664065E4
452 452 1.924803E5
452 453 -9.583965E4
453 452 -9.664065E4
453 453 1.924803E5
453 454 -9.583965E4
454 453 -9.664065E4
454 454 1.924803E5
454 455 -9.583965E4
455 454 -9.664065E4
455 455 1.924803E5
455 456 -9.583965E4
456 455 -9.664065E4
456 456 1.924803E5
456 457 -9.583965E4
457 456 -9.664065E4
457 457 1.924803E5
457 458 -9.583965E4
458 457 -9.664065E4
458 458 1.924803E5
458 459 -9.583965E4
459 458 -9.664065E4
459 459 1.924803E5
459 460 -9.583965E4
460 459 -9.664065E4
460 460 1.924803E5
460 461 -9.583965E4
461 460 -9.664065E4
461 461 1.924803E5
461 462 -9.583965E4
462 461 -9.664065E4
462 462 1.924803E5
462 463 -9.583965E4
463 462 -9.664065E4
463 463 1.924803E5
463 464 -9.583965E4
464 463 -9.664065E4
464 464 1.924803E5
464 465 -9.583965E4
465 464 -9.664065E4
465 465 1.924803E5
465 466 -9.583965E4
466 465 -9.664065E4
466 466 1.924803E5
466 467 -9.583965E4
467 466 -9.664065E4
467 467 1.924803E5
467 468 -9.583965E4
468 467 -9.664065E4
468 468 1.924803E5
468 469 -9.583965E4
469 468 -9.664065E4
469 469 1.924803E5
469 470 -9.583965E4
470 469 -9.664065E4
470 470 1.924803E5
470 471 -9.583965E4
471 470 -9.664065E4
471 471 1.924803E5
471 472 -9.583965E4
472 471 -9.664065E4
472 472 1.924803E5
472 473 -9.583965E4
473 472 -9.664065E4
473 473 1.924803E5
473 474 -9.583965E4
474 473 -9.664065E4
474 474 1.924803E5
474 475 -9.583965E4
475 474 -9.664065E4
475 475 1.924803E5
475 476 -9.583965E4
476 475 -9.664065E4
476 476 1.924803E5
476 477 -9.583965E4
477 476 -9.664065E4
477 477 1.924803E5
477 478 -9.583965E4
478 477 -9.664065E4
478 478 1.924803E5
478 479 -9.583965E4
479 478 -9.664065E4
479 479 1.924803E5
479 480 -9.583965E4
480 479 -9.664065E4
480 480 1.924803E5
480 481 -9.583965E4
481 480 -9.664065E4
481 481 1.924803E5
481 482 -9.583965E4
482 481 -9.664065E4
482 482 1.924803E5
482 483 -9.583965E4
483 482 -9.664065E4
483 483 1.924803E5
483 484 -9.583965E4
484 483 -9.664065E4
484 484 1.924803E5
484 485 -9.583965E4
485 484 -9.664065E4
485 485 1.924803E5
485 486 -9.583965E4
486 485 -9.664065E4
486 486 1.924803E5
486 487 -9.583965E4
487 486 -9.664065E4
487 487 1.924803E5
487 488 -9.583965E4
488 487 -9.664065E4
488 488 1.924803E5
488 489 -9.583965E4
489 488 -9.664065E4
489 489 1.924803E5
489 490 -9.583965E4
490 489 -9.664065E4
490 490 1.924803E5
490 491 -9.583965E4
491 490 -9.664065E4
491 491 1.924803E5
491 492 -9.583965E4
492 491 -9.664065E4
492 492 1.924803E5
492 493 -9.583965E4
493 492 -9.664065E4
493 493 1.924803E5
493 494 -9.583965E4
494 493 -9.664065E4
494 494 1.924803E5
494 495 -9.583965E4
495 494 -9.664065E4
495 495 1.924803E5
495 496 -9.583965E4
496 495 -9.664065E4
496 496 1.924803E5
496 497 -9.583965E4
497 496 -9.664065E4
497 497 1.924803E5
497 498 -9.583965E4
498 497 -9.664065E4
498 498 1.924803E5
498 499 -9.583965E4
499 498 -9.664065E4
499 499 1.924803E5
499 500 -9.583965E4
500 499 -9.664065E4
500 500 1.924803E5
500 501 -9.583965E4
501 500 -9.664065E4
501 501 1.924803E5
501 502 -9.583965E4
502 501 -9.664065E4
502 502 1.924803E5
502 503 -9.583965E4
503 502 -9.664065E4
503 503 1.924803E5
503 504 -9.583965E4
504 503 -9.664065E4
504 504 1.924803E5
504 505 -9.583965E4
505 504 -9.664065E4
505 505 1.924803E5
505 506 -9.583965E4
506 505 -9.664065E4
506 506 1.924803E5
506 507 -9.583965E4
507 506 -9.664065E4
507 507 1.924803E5
507 508 -9.583965E4
508 507 -9.664065E4
508 508 1.924803E5
508 509 -9.583965E4
509 508 -9.664065E4
509 509 1.924803E5
509 510 -9.583965E4
510 509 -9.664065E4
510 510 1.924803E5
510 511 -9.583965E4
511 510 -9.664065E4
511 511 1.924803E5
511 512 -9.583965E4
512 511 -9.664065E4
512 512 1.924803E5
512 513 -9.583965E4
513 512 -9.664065E4
513 513 1.924803E5
513 514 -9.583965E4
514 513 -9.664065E4
514 514 1.924803E5
514 515 -9.583965E4
515 514 -9.664065E4
515 515 1.924803E5
515 516 -9.583965E4
516 515 -9.664065E4
516 516 1.924803E5
516 517 -9.583965E4
517 516 -9.664065E4
517 517 1.924803E5
517 518 -9.583965E4
518 517 -9.664065E4
518 518 1.924803E5
518 519 -9.583965E4
519 518 -9.664065E4
519 519 1.924803E5
519 520 -9.583965E4
520 519 -9.664065E4
520 520 1.924803E5
520 521 -9.583965E4
521 520 -9.664065E4
521 521 1.924803E5
521 522 -9.583965E4
522 521 -9.664065E4
522 522 1.924803E5
522 523 -9.583965E4
523 522 -9.664065E4
523 523 1.924803E5
523 524 -9.583965E4
524 523 -9.664065E4
524 524 1.924803E5
524 525 -9.583965E4
525 524 -9.664065E4
525 525 1.924803E5
525 526 -9.583965E4
526 525 -9.664065E4
526 526 1.924803E5
526 527 -9.583965E4
527 526 -9.664065E4
527 527 1.924803E5
527 528 -9.583965E4
528 527 -9.664065E4
528 528 1.924803E5
528 529 -9.583965E4
529 528 -9.664065E4
529 529 1.924803E5
529 530 -9.583965E4
530 529 -9.664065E4
530 530 1.924803E5
530 531 -9.583965E4
531 530 -9.664065E4
531 531 1.924803E5
531 532 -9.583965E4
532 531 -9.664065E4
532 532 1.924803E5
532 533 -9.583965E4
533 532 -9.664065E4
533 533 1.924803E5
533 534 -9.583965E4
534 533 -9.664065E4
534 534 1.924803E5
534 535 -9.583965E4
535 534 -9.664065E4
535 535 1.924803E5
535 536 -9.583965E4
536 535 -9.664065E4
536 536 1.924803E5
536 537 -9.583965E4
537 536 -9.664065E4
537 537 1.924803E5
537 538 -9.583965E4
538 537 -9.664065E4
538 538 1.924803E5
538 539 -9.583965E4
539 538 -9.664065E4
539 539 1.924803E5
539 540 -9.583965E4
540 539 -9.664065E4
540 540 1.924803E5
540 541 -9.583965E4
541 540 -9.664065E4
541 541 1.924803E5
541 542 -9.583965E4
542 541 -9.664065E4
542 542 1.924803E5
542 543 -9.583965E4
543 542 -9.664065E4
543 543 1.924803E5
543 544 -9.583965E4
544 543 -9.664065E4
544 544 1.924803E5
544 545 -9.583965E4
545 544 -9.664065E4
545 545 1.924803E5
545 546 -9.583965E4
546 545 -9.664065E4
546 546 1.924803E5
546 547 -9.583965E4
547 546 -9.664065E4
547 547 1.924803E5
547 548 -9.583965E4
548 547 -9.664065E4
548 548 1.924803E5
548 549 -9.583965E4
549 548 -9.664065E4
549 549 1.924803E5
549 550 -9.583965E4
550 549 -9.664065E4
550 550 1.924803E5
550 551 -9.583965E4
551 550 -9.664065E4
551 551 1.924803E5
551 552 -9.583965E4
552 551 -9.664065E4
552 552 1.924803E5
552 553 -9.583965E4
553 552 -9.664065E4
553 553 1.924803E5
553 554 -9.583965E4
554 553 -9.664065E4
554 554 1.924803E5
554 555 -9.583965E4
555 554 -9.664065E4
555 555 1.924803E5
555 556 -9.583965E4
556 555 -9.664065E4
556 556 1.924803E5
556 557 -9.583965E4
557 556 -9.664065E4
557 557 1.924803E5
557 558 -9.583965E4
558 557 -9.664065E4
558 558 1.924803E5
558 559 -9.583965E4
559 558 -9.664065E4
559 559 1.924803E5
559 560 -9.583965E4
560 559 -9.664065E4
560 560 1.924803E5
560 561 -9.583965E4
561 560 -9.664065E4
561 561 1.924803E5
561 562 -9.583965E4
562 561 -9.664065E4
562 562 1.924803E5
562 563 -9.583965E4
563 562 -9.664065E4
563 563 1.924803E5
563 564 -9.583965E4
564 563 -9.664065E4
564 564 1.924803E5
564 565 -9.583965E4
565 564 -9.664065E4
565 565 1.924803E5
565 566 -9.583965E4
566 565 -9.664065E4
566 566 1.924803E5
566 567 -9.583965E4
567 566 -9.664065E4
567 567 1.924803E5
567 568 -9.583965E4
568 567 -9.664065E4
568 568 1.924803E5
568 569 -9.583965E4
569 568 -9.664065E4
569 569 1.924803E5
569 570 -9.583965E4
570 569 -9.664065E4
570 570 1.924803E5
570 571 -9.583965E4
571 570 -9.664065E4
571 571 1.924803E5
571 572 -9.583965E4
572 571 -9.664065E4
572 572 1.924803E5
572 573 -9.583965E4
573 572 -9.664065E4
573 573 1.924803E5
573 574 -9.583965E4
574 573 -9.664065E4
574 574 1.924803E5
574 575 -9.583965E4
575 574 -9.664065E4
575 575 1.924803E5
575 576 -9.583965E4
576 575 -9.664065E4
576 576 1.924803E5
576 577 -9.583965E4
577 576 -9.664065E4
577 577 1.924803E5
577 578 -9.583965E4
578 577 -9.664065E4
578 578 1.924803E5
578 579 -9.583965E4
579 578 -9.664065E4
579 579 1.924803E5
579 580 -9.583965E4
580 579 -9.664065E4
580 580 1.924803E5
580 581 -9.583965E4
581 580 -9.664065E4
581 581 1.924803E5
581 582 -9.583965E4
582 581 -9.664065E4
582 582 1.924803E5
582 583 -9.583965E4
583 582 -9.664065E4
583 583 1.924803E5
583 584 -9.583965E4
584 583 -9.664065E4
584 584 1.924803E5
584 585 -9.583965E4
585 584 -9.664065E4
585 585 1.924803E5
585 586 -9.583965E4
586 585 -9.664065E4
586 586 1.924803E5
586 587 -9.583965E4
587 586 -9.664065E4
587 587 1.924803E5
587 588 -9.583965E4
588 587 -9.664065E4
588 588 1.924803E5
588 589 -9.583965E4
589 588 -9.664065E4
589 589 1.924803E5
589 590 -9.583965E4
590 589 -9.664065E4
590 590 1.924803E5
590 591 -9.583965E4
591 590 -9.664065E4
591 591 1.924803E5
591 592 -9.583965E4
592 591 -9.664065E4
592 592 1.924803E5
592 593 -9.583965E4
593 592 -9.664065E4
593 593 1.924803E5
593 594 -9.583965E4
594 593 -9.664065E4
594 594 1.924803E5
594 595 -9.583965E4
595 594 -9.664065E4
595 595 1.924803E5
595 596 -9.583965E4
596 595 -9.664065E4
596 596 1.924803E5
596 597 -9.583965E4
597 596 -9.664065E4
597 597 1.924803E5
597 598 -9.583965E4
598 597 -9.664065E4
598 598 1.924803E5
598 599 -9.583965E4
599 598 -9.664065E4
599 599 1.924803E5
599 600 -9.583965E4
600 599 -9.664065E4
600 600 1.924803E5
600 601 -9.583965E4
601 600 -9.664065E4
601 601 1.924803E5
601 602 -9.583965E4
602 601 -9.664065E4
602 602 1.924803E5
602 603 -9.583965E4
603 602 -9.664065E4
603 603 1.924803E5
603 604 -9.583965E4
604 603 -9.664065E4
604 604 1.924803E5
604 605 -9.583965E4
605 604 -9.664065E4
605 605 1.924803E5
605 606 -9.583965E4
606 605 -9.664065E4
606 606 1.924803E5
606 607 -9.583965E4
607 606 -9.664065E4
607 607 1.924803E5
607 608 -9.583965E4
608 607 -9.664065E4
608 608 1.924803E5
608 609 -9.583965E4
609 608 -9.664065E4
609 609 1.924803E5
609 610 -9.583965E4
610 609 -9.664065E4
610 610 1.924803E5
610 611 -9.583965E4
611 610 -9.664065E4
611 611 1.924803E5
611 612 -9.583965E4
612 611 -9.664065E4
612 612 1.924803E5
612 613 -9.583965E4
613 612 -9.664065E4
613 613 1.924803E5
613 614 -9.583965E4
614 613 -9.664065E4
614 614 1.924803E5
614 615 -9.583965E4
615 614 -9.664065E4
615 615 1.924803E5
615 616 -9.583965E4
616 615 -9.664065E4
616 616 1.924803E5
616 617 -9.583965E4
617 616 -9.664065E4
617 617 1.924803E5
617 618 -9.583965E4
618 617 -9.664065E4
618 618 1.924803E5
618 619 -9.583965E4
619 618 -9.664065E4
619 619 1.924803E5
619 620 -9.583965E4
620 619 -9.664065E4
620 620 1.924803E5
620 621 -9.583965E4
621 620 -9.664065E4
621 621 1.924803E5
621 622 -9.583965E4
622 621 -9.664065E4
622 622 1.924803E5
622 623 -9.583965E4
623 622 -9.664065E4
623 623 1.924803E5
623 624 -9.583965E4
624 623 -9.664065E4
624 624 1.924803E5
624 625 -9.583965E4
625 624 -9.664065E4
625 625 1.924803E5
625 626 -9.583965E4
626 625 -9.664065E4
626 626 1.924803E5
626 627 -9.583965E4
627 626 -9.664065E4
627 627 1.924803E5
627 628 -9.583965E4
628 627 -9.664065E4
628 628 1.924803E5
628 629 -9.583965E4
629 628 -9.664065E4
629 629 1.924803E5
629 630 -9.583965E4
630 629 -9.664065E4
630 630 1.924803E5
630 631 -9.583965E4
631 630 -9.664065E4
631 631 1.924803E5
631 632 -9.583965E4
632 631 -9.664065E4
632 632 1.924803E5
632 633 -9.583965E4
633 632 -9.664065E4
633 633 1.924803E5
633 634 -9.583965E4
634 633 -9.664065E4
634 634 1.924803E5
634 635 -9.583965E4
635 634 -9.664065E4
635 635 1.924803E5
635 636 -9.583965E4
636 635 -9.664065E4
636 636 1.924803E5
636 637 -9.583965E4
637 636 -9.664065E4
637 637 1.924803E5
637 638 -9.583965E4
638 637 -9.664065E4
638 638 1.924803E5
638 639 -9.583965E4
639 638 -9.664065E4
639 639 1.924803E5
639 640 -9.583965E4
640 639 -9.664065E4
640 640 1.924803E5
640 641 -9.583965E4
641 640 -9.664065E4
641 641 1.924803E5
641 642 -9.583965E4
642 641 -9.664065E4
642 642 1.924803E5
642 643 -9.583965E4
643 642 -9.664065E4
643 643 1.924803E5
643 644 -9.583965E4
644 643 -9.664065E4
644 644 1.924803E5
644 645 -9.583965E4
645 644 -9.664065E4
645 645 1.924803E5
645 646 -9.583965E4
646 645 -9.664065E4
646 646 1.924803E5
646 647 -9.583965E4
647 646 -9.664065E4
647 647 1.924803E5
647 648 -9.583965E4
648 647 -9.664065E4
648 648 1.924803E5
648 649 -9.583965E4
649 648 -9.664065E4
649 649 1.924803E5
649 650 -9.583965E4
650 649 -9.664065E4
650 650 1.924803E5
650 651 -9.583965E4
651 650 -9.664065E4
651 651 1.924803E5
651 652 -9.583965E4
652 651 -9.664065E4
652 652 1.924803E5
652 653 -9.583965E4
653 652 -9.664065E4
653 653 1.924803E5
653 654 -9.583965E4
654 653 -9.664065E4
654 654 1.924803E5
654 655 -9.583965E4
655 654 -9.664065E4
655 655 1.924803E5
655 656 -9.583965E4
656 655 -9.664065E4
656 656 1.924803E5
656 657 -9.583965E4
657 656 -9.664065E4
657 657 1.924803E5
657 658 -9.583965E4
658 657 -9.664065E4
658 658 1.924803E5
658 659 -9.583965E4
659 658 -9.664065E4
659 659 1.924803E5
659 660 -9.583965E4
660 659 -9.664065E4
660 660 1.924803E5
660 661 -9.583965E4
661 660 -9.664065E4
661 661 1.924803E5
661 662 -9.583965E4
662 661 -9.664065E4
662 662 1.924803E5
662 663 -9.583965E4
663 662 -9.664065E4
663 663 1.924803E5
663 664 -9.583965E4
664 663 -9.664065E4
664 664 1.924803E5
664 665 -9.583965E4
665 664 -9.664065E4
665 665 1.924803E5
665 666 -9.583965E4
666 665 -9.664065E4
666 666 1.924803E5
666 667 -9.583965E4
667 666 -9.664065E4
667 667 1.924803E5
667 668 -9.583965E4
668 667 -9.664065E4
668 668 1.924803E5
668 669 -9.583965E4
669 668 -9.664065E4
669 669 1.924803E5
669 670 -9.583965E4
670 669 -9.664065E4
670 670 1.924803E5
670 671 -9.583965E4
671 670 -9.664065E4
671 671 1.924803E5
671 672 -9.583965E4
672 671 -9.664065E4
672 672 1.924803E5
672 673 -9.583965E4
673 672 -9.664065E4
673 673 1.924803E5
673 674 -9.583965E4
674 673 -9.664065E4
674 674 1.924803E5
674 675 -9.583965E4
675 674 -9.664065E4
675 675 1.924803E5
675 676 -9.583965E4
676 675 -9.664065E4
676 676 1.924803E5
676 677 -9.583965E4
677 676 -9.664065E4
677 677 1.924803E5
677 678 -9.583965E4
678 677 -9.664065E4
678 678 1.924803E5
678 679 -9.583965E4
679 678 -9.664065E4
679 679 1.924803E5
679 680 -9.583965E4
680 679 -9.664065E4
680 680 1.924803E5
680 681 -9.583965E4
681 680 -9.664065E4
681 681 1.924803E5
681 682 -9.583965E4
682 681 -9.664065E4
682 682 1.924803E5
682 683 -9.583965E4
683 682 -9.664065E4
683 683 1.924803E5
683 684 -9.583965E4
684 683 -9.664065E4
684 684 1.924803E5
684 685 -9.583965E4
685 684 -9.664065E4
685 685 1.924803E5
685 686 -9.583965E4
686 685 -9.664065E4
686 686 1.924803E5
686 687 -9.583965E4
687 686 -9.664065E4
687 687 1.924803E5
687 688 -9.583965E4
688 687 -9.664065E4
688 688 1.924803E5
688 689 -9.583965E4
689 688 -9.664065E4
689 689 1.924803E5
689 690 -9.583965E4
690 689 -9.664065E4
690 690 1.924803E5
690 691 -9.583965E4
691 690 -9.664065E4
691 691 1.924803E5
691 692 -9.583965E4
692 691 -9.664065E4
692 692 1.924803E5
692 693 -9.583965E4
693 692 -9.664065E4
693 693 1.924803E5
693 694 -9.583965E4
694 693 -9.664065E4
694 694 1.924803E5
694 695 -9.583965E4
695 694 -9.664065E4
695 695 1.924803E5
695 696 -9.583965E4
696 695 -9.664065E4
696 696 1.924803E5
696 697 -9.583965E4
697 696 -9.664065E4
697 697 1.924803E5
697 698 -9.583965E4
698 697 -9.664065E4
698 698 1.924803E5
698 699 -9.583965E4
699 698 -9.664065E4
699 699 1.924803E5
699 700 -9.583965E4
700 699 -9.664065E4
700 700 1.924803E5
700 701 -9.583965E4
701 700 -9.664065E4
701 701 1.924803E5
701 702 -9.583965E4
702 701 -9.664065E4
702 702 1.924803E5
702 703 -9.583965E4
703 702 -9.664065E4
703 703 1.924803E5
703 704 -9.583965E4
704 703 -9.664065E4
704 704 1.924803E5
704 705 -9.583965E4
705 704 -9.664065E4
705 705 1.924803E5
705 706 -9.583965E4
706 705 -9.664065E4
706 706 1.924803E5
706 707 -9.583965E4
707 706 -9.664065E4
707 707 1.924803E5
707 708 -9.583965E4
708 707 -9.664065E4
708 708 1.924803E5
708 709 -9.583965E4
709 708 -9.664065E4
709 709 1.924803E5
709 710 -9.583965E4
710 709 -9.664065E4
710 710 1.924803E5
710 711 -9.583965E4
711 710 -9.664065E4
711 711 1.924803E5
711 712 -9.583965E4
712 711 -9.664065E4
712 712 1.924803E5
712 713 -9.583965E4
713 712 -9.664065E4
713 713 1.924803E5
713 714 -9.583965E4
714 713 -9.664065E4
714 714 1.924803E5
714 715 -9.583965E4
715 714 -9.664065E4
715 715 1.924803E5
715 716 -9.583965E4
716 715 -9.664065E4
716 716 1.924803E5
716 717 -9.583965E4
717 716 -9.664065E4
717 717 1.924803E5
717 718 -9.583965E4
718 717 -9.664065E4
718 718 1.924803E5
718 719 -9.583965E4
719 718 -9.664065E4
719 719 1.924803E5
719 720 -9.583965E4
720 719 -9.664065E4
720 720 1.924803E5
720 721 -9.583965E4
721 720 -9.664065E4
721 721 1.924803E5
721 722 -9.583965E4
722 721 -9.664065E4
722 722 1.924803E5
722 723 -9.583965E4
723 722 -9.664065E4
723 723 1.924803E5
723 724 -9.583965E4
724 723 -9.664065E4
724 724 1.924803E5
724 725 -9.583965E4
725 724 -9.664065E4
725 725 1.924803E5
725 726 -9.583965E4
726 725 -9.664065E4
726 726 1.924803E5
726 727 -9.583965E4
727 726 -9.664065E4
727 727 1.924803E5
727 728 -9.583965E4
728 727 -9.664065E4
728 728 1.924803E5
728 729 -9.583965E4
729 728 -9.664065E4
729 729 1.924803E5
729 730 -9.583965E4
730 729 -9.664065E4
730 730 1.924803E5
730 731 -9.583965E4
731 730 -9.664065E4
731 731 1.924803E5
731 732 -9.583965E4
732 731 -9.664065E4
732 732 1.924803E5
732 733 -9.583965E4
733 732 -9.664065E4
733 733 1.924803E5
733 734 -9.583965E4
734 733 -9.664065E4
734 734 1.924803E5
734 735 -9.583965E4
735 734 -9.664065E4
735 735 1.924803E5
735 736 -9.583965E4
736 735 -9.664065E4
736 736 1.924803E5
736 737 -9.583965E4
737 736 -9.664065E4
737 737 1.924803E5
737 738 -9.583965E4
738 737 -9.664065E4
738 738 1.924803E5
738 739 -9.583965E4
739 738 -9.664065E4
739 739 1.924803E5
739 740 -9.583965E4
740 739 -9.664065E4
740 740 1.924803E5
740 741 -9.583965E4
741 740 -9.664065E4
741 741 1.924803E5
741 742 -9.583965E4
742 741 -9.664065E4
742 742 1.924803E5
742 743 -9.583965E4
743 742 -9.664065E4
743 743 1.924803E5
743 744 -9.583965E4
744 743 -9.664065E4
744 744 1.924803E5
744 745 -9.583965E4
745 744 -9.664065E4
745 745 1.924803E5
745 746 -9.583965E4
746 745 -9.664065E4
746 746 1.924803E5
746 747 -9.583965E4
747 746 -9.664065E4
747 747 1.924803E5
747 748 -9.583965E4
748 747 -9.664065E4
748 748 1.924803E5
748 749 -9.583965E4
749 748 -9.664065E4
749 749 1.924803E5
749 750 -9.583965E4
750 749 -9.664065E4
750 750 1.924803E5
750 751 -9.583965E4
751 750 -9.664065E4
751 751 1.924803E5
751 752 -9.583965E4
752 751 -9.664065E4
752 752 1.924803E5
752 753 -9.583965E4
753 752 -9.664065E4
753 753 1.924803E5
753 754 -9.583965E4
754 753 -9.664065E4
754 754 1.924803E5
754 755 -9.583965E4
755 754 -9.664065E4
755 755 1.924803E5
755 756 -9.583965E4
756 755 -9.664065E4
756 756 1.924803E5
756 757 -9.583965E4
757 756 -9.664065E4
757 757 1.924803E5
757 758 -9.583965E4
758 757 -9.664065E4
758 758 1.924803E5
758 759 -9.583965E4
759 758 -9.664065E4
759 759 1.924803E5
759 760 -9.583965E4
760 759 -9.664065E4
760 760 1.924803E5
760 761 -9.583965E4
761 760 -9.664065E4
761 761 1.924803E5
761 762 -9.583965E4
762 761 -9.664065E4
762 762 1.924803E5
762 763 -9.583965E4
763 762 -9.664065E4
763 763 1.924803E5
763 764 -9.583965E4
764 763 -9.664065E4
764 764 1.924803E5
764 765 -9.583965E4
765 764 -9.664065E4
765 765 1.924803E5
765 766 -9.583965E4
766 765 -9.664065E4
766 766 1.924803E5
766 767 -9.583965E4
767 766 -9.664065E4
767 767 1.924803E5
767 768 -9.583965E4
768 767 -9.664065E4
768 768 1.924803E5
768 769 -9.583965E4
769 768 -9.664065E4
769 769 1.924803E5
769 770 -9.583965E4
770 769 -9.664065E4
770 770 1.924803E5
770 771 -9.583965E4
771 770 -9.664065E4
771 771 1.924803E5
771 772 -9.583965E4
772 771 -9.664065E4
772 772 1.924803E5
772 773 -9.583965E4
773 772 -9.664065E4
773 773 1.924803E5
773 774 -9.583965E4
774 773 -9.664065E4
774 774 1.924803E5
774 775 -9.583965E4
775 774 -9.664065E4
775 775 1.924803E5
775 776 -9.583965E4
776 775 -9.664065E4
776 776 1.924803E5
776 777 -9.583965E4
777 776 -9.664065E4
777 777 1.924803E5
777 778 -9.583965E4
778 777 -9.664065E4
778 778 1.924803E5
778 779 -9.583965E4
779 778 -9.664065E4
779 779 1.924803E5
779 780 -9.583965E4
780 779 -9.664065E4
780 780 1.924803E5
780 781 -9.583965E4
781 780 -9.664065E4
781 781 1.924803E5
781 782 -9.583965E4
782 781 -9.664065E4
782 782 1.924803E5
782 783 -9.583965E4
783 782 -9.664065E4
783 783 1.924803E5
783 784 -9.583965E4
784 783 -9.664065E4
784 784 1.924803E5
784 785 -9.583965E4
785 784 -9.664065E4
785 785 1.924803E5
785 786 -9.583965E4
786 785 -9.664065E4
786 786 1.924803E5
786 787 -9.583965E4
787 786 -9.664065E4
787 787 1.924803E5
787 788 -9.583965E4
788 787 -9.664065E4
788 788 1.924803E5
788 789 -9.583965E4
789 788 -9.664065E4
789 789 1.924803E5
789 790 -9.583965E4
790 789 -9.664065E4
790 790 1.924803E5
790 791 -9.583965E4
791 790 -9.664065E4
791 791 1.924803E5
791 792 -9.583965E4
792 791 -9.664065E4
792 792 1.924803E5
792 793 -9.583965E4
793 792 -9.664065E4
793 793 1.924803E5
793 794 -9.583965E4
794 793 -9.664065E4
794 794 1.924803E5
794 795 -9.583965E4
795 794 -9.664065E4
795 795 1.924803E5
795 796 -9.583965E4
796 795 -9.664065E4
796 796 1.924803E5
796 797 -9.583965E4
797 796 -9.664065E4
797 797 1.924803E5
797 798 -9.583965E4
798 797 -9.664065E4
798 798 1.924803E5
798 799 -9.583965E4
799 798 -9.664065E4
799 799 1.924803E5
799 800 -9.583965E4
800 799 -9.664065E4
800 800 1.924803E5
