%%MatrixMarket matrix coordinate real general
% 1D convection-diffusion (-eps*u'' + beta*u' = f), central FD, n=2500, eps=0.09, beta=1.0, kappa~=614231
2500 2500 7498
1 1 1.12590018E6
1 2 -5.6169959E5
2 1 -5.6420059E5
2 2 1.12590018E6
2 3 -5.6169959E5
3 2 -5.6420059E5
3 3 1.12590018E6
3 4 -5.6169959E5
4 3 -5.6420059E5
4 4 1.12590018E6
4 5 -5.6169959E5
5 4 -5.6420059E5
5 5 1.12590018E6
5 6 -5.6169959E5
6 5 -5.6420059E5
6 6 1.12590018E6
6 7 -5.6169959E5
7 6 -5.6420059E5
7 7 1.12590018E6
7 8 -5.6169959E5
8 7 -5.6420059E5
8 8 1.12590018E6
8 9 -5.6169959E5
9 8 -5.6420059E5
9 9 1.12590018E6
9 10 -5.6169959E5
10 9 -5.6420059E5
10 10 1.12590018E6
10 11 -5.6169959E5
11 10 -5.6420059E5
11 11 1.12590018E6
11 12 -5.6169959E5
12 11 -5.6420059E5
12 12 1.12590018E6
12 13 -5.6169959E5
13 12 -5.6420059E5
13 13 1.12590018E6
13 14 -5.6169959E5
14 13 -5.6420059E5
14 14 1.12590018E6
14 15 -5.6169959E5
15 14 -5.6420059E5
15 15 1.12590018E6
15 16 -5.6169959E5
16 15 -5.6420059E5
16 16 1.12590018E6
16 17 -5.6169959E5
17 16 -5.6420059E5
17 17 1.12590018E6
17 18 -5.6169959E5
18 17 -5.6420059E5
18 18 1.12590018E6
18 19 -5.6169959E5
19 18 -5.6420059E5
19 19 1.12590018E6
19 20 -5.6169959E5
20 19 -5.6420059E5
20 20 1.12590018E6
20 21 -5.6169959E5
21 20 -5.6420059E5
21 21 1.12590018E6
21 22 -5.6169959E5
22 21 -5.6420059E5
22 22 1.12590018E6
22 23 -5.6169959E5
23 22 -5.6420059E5
23 23 1.12590018E6
23 24 -5.6169959E5
24 23 -5.6420059E5
24 24 1.12590018E6
24 25 -5.6169959E5
25 24 -5.6420059E5
25 25 1.12590018E6
25 26 -5.6169959E5
26 25 -5.6420059E5
26 26 1.12590018E6
26 27 -5.6169959E5
27 26 -5.6420059E5
27 27 1.12590018E6
27 28 -5.6169959E5
28 27 -5.6420059E5
28 28 1.12590018E6
28 29 -5.6169959E5
29 28 -5.6420059E5
29 29 1.12590018E6
29 30 -5.6169959E5
30 29 -5.6420059E5
30 30 1.12590018E6
30 31 -5.6169959E5
31 30 -5.6420059E5
31 31 1.12590018E6
31 32 -5.6169959E5
32 31 -5.6420059E5
32 32 1.12590018E6
32 33 -5.6169959E5
33 32 -5.6420059E5
33 33 1.12590018E6
33 34 -5.6169959E5
34 33 -5.6420059E5
34 34 1.12590018E6
34 35 -5.6169959E5
35 34 -5.6420059E5
35 35 1.12590018E6
35 36 -5.6169959E5
36 35 -5.6420059E5
36 36 1.12590018E6
36 37 -5.6169959E5
37 36 -5.6420059E5
37 37 1.12590018E6
37 38 -5.6169959E5
38 37 -5.6420059E5
38 38 1.12590018E6
38 39 -5.6169959E5
39 38 -5.6420059E5
39 39 1.12590018E6
39 40 -5.6169959E5
40 39 -5.6420059E5
40 40 1.12590018E6
40 41 -5.6169959E5
41 40 -5.6420059E5
41 41 1.12590018E6
41 42 -5.6169959E5
42 41 -5.6420059E5
42 42 1.12590018E6
42 43 -5.6169959E5
43 42 -5.6420059E5
43 43 1.12590018E6
43 44 -5.6169959E5
44 43 -5.6420059E5
44 44 1.12590018E6
44 45 -5.6169959E5
45 44 -5.6420059E5
45 45 1.12590018E6
45 46 -5.6169959E5
46 45 -5.6420059E5
46 46 1.12590018E6
46 47 -5.6169959E5
47 46 -5.6420059E5
47 47 1.12590018E6
47 48 -5.6169959E5
48 47 -5.6420059E5
48 48 1.12590018E6
48 49 -5.6169959E5
49 48 -5.6420059E5
49 49 1.12590018E6
49 50 -5.6169959E5
50 49 -5.6420059E5
50 50 1.12590018E6
50 51 -5.6169959E5
51 50 -5.6420059E5
51 51 1.12590018E6
51 52 -5.6169959E5
52 51 -5.6420059E5
52 52 1.12590018E6
52 53 -5.6169959E5
53 52 -5.6420059E5
53 53 1.12590018E6
53 54 -5.6169959E5
54 53 -5.6420059E5
54 54 1.12590018E6
54 55 -5.6169959E5
55 54 -5.6420059E5
55 55 1.12590018E6
55 56 -5.6169959E5
56 55 -5.6420059E5
56 56 1.12590018E6
56 57 -5.6169959E5
57 56 -5.6420059E5
57 57 1.12590018E6
57 58 -5.6169959E5
58 57 -5.6420059E5
58 58 1.12590018E6
58 59 -5.6169959E5
59 58 -5.6420059E5
59 59 1.12590018E6
59 60 -5.6169959E5
60 59 -5.6420059E5
60 60 1.12590018E6
60 61 -5.6169959E5
61 60 -5.6420059E5
61 61 1.12590018E6
61 62 -5.6169959E5
62 61 -5.6420059E5
62 62 1.12590018E6
62 63 -5.6169959E5
63 62 -5.6420059E5
63 63 1.12590018E6
63 64 -5.6169959E5
64 63 -5.6420059E5
64 64 1.12590018E6
64 65 -5.6169959E5
65 64 -5.6420059E5
65 65 1.12590018E6
65 66 -5.6169959E5
66 65 -5.6420059E5
66 66 1.12590018E6
66 67 -5.6169959E5
67 66 -5.6420059E5
67 67 1.12590018E6
67 68 -5.6169959E5
68 67 -5.6420059E5
68 68 1.12590018E6
68 69 -5.6169959E5
69 68 -5.6420059E5
69 69 1.12590018E6
69 70 -5.6169959E5
70 69 -5.6420059E5
70 70 1.12590018E6
70 71 -5.6169959E5
71 70 -5.6420059E5
71 71 1.12590018E6
71 72 -5.6169959E5
72 71 -5.6420059E5
72 72 1.12590018E6
72 73 -5.6169959E5
73 72 -5.6420059E5
73 73 1.12590018E6
73 74 -5.6169959E5
74 73 -5.6420059E5
74 74 1.12590018E6
74 75 -5.6169959E5
75 74 -5.6420059E5
75 75 1.12590018E6
75 76 -5.6169959E5
76 75 -5.6420059E5
76 76 1.12590018E6
76 77 -5.6169959E5
77 76 -5.6420059E5
77 77 1.12590018E6
77 78 -5.6169959E5
78 77 -5.6420059E5
78 78 1.12590018E6
78 79 -5.6169959E5
79 78 -5.6420059E5
79 79 1.12590018E6
79 80 -5.6169959E5
80 79 -5.6420059E5
80 80 1.12590018E6
80 81 -5.6169959E5
81 80 -5.6420059E5
81 81 1.12590018E6
81 82 -5.6169959E5
82 81 -5.6420059E5
82 82 1.12590018E6
82 83 -5.6169959E5
83 82 -5.6420059E5
83 83 1.12590018E6
83 84 -5.6169959E5
84 83 -5.6420059E5
84 84 1.12590018E6
84 85 -5.6169959E5
85 84 -5.6420059E5
85 85 1.12590018E6
85 86 -5.6169959E5
86 85 -5.6420059E5
86 86 1.12590018E6
86 87 -5.6169959E5
87 86 -5.6420059E5
87 87 1.12590018E6
87 88 -5.6169959E5
88 87 -5.6420059E5
88 88 1.12590018E6
88 89 -5.6169959E5
89 88 -5.6420059E5
89 89 1.12590018E6
89 90 -5.6169959E5
90 89 -5.6420059E5
90 90 1.12590018E6
90 91 -5.6169959E5
91 90 -5.6420059E5
91 91 1.12590018E6
91 92 -5.6169959E5
92 91 -5.6420059E5
92 92 1.12590018E6
92 93 -5.6169959E5
93 92 -5.6420059E5
93 93 1.12590018E6
93 94 -5.6169959E5
94 93 -5.6420059E5
94 94 1.12590018E6
94 95 -5.6169959E5
95 94 -5.6420059E5
95 95 1.12590018E6
95 96 -5.6169959E5
96 95 -5.6420059E5
96 96 1.12590018E6
96 97 -5.6169959E5
97 96 -5.6420059E5
97 97 1.12590018E6
97 98 -5.6169959E5
98 97 -5.6420059E5
98 98 1.12590018E6
98 99 -5.6169959E5
99 98 -5.6420059E5
99 99 1.12590018E6
99 100 -5.6169959E5
100 99 -5.6420059E5
100 100 1.12590018E6
100 101 -5.6169959E5
101 100 -5.6420059E5
101 101 1.12590018E6
101 102 -5.6169959E5
102 101 -5.6420059E5
102 102 1.12590018E6
102 103 -5.6169959E5
103 102 -5.6420059E5
103 103 1.12590018E6
103 104 -5.6169959E5
104 103 -5.6420059E5
104 104 1.12590018E6
104 105 -5.6169959E5
105 104 -5.6420059E5
105 105 1.12590018E6
105 106 -5.6169959E5
106 105 -5.6420059E5
106 106 1.12590018E6
106 107 -5.6169959E5
107 106 -5.6420059E5
107 107 1.12590018E6
107 108 -5.6169959E5
108 107 -5.6420059E5
108 108 1.12590018E6
108 109 -5.6169959E5
109 108 -5.6420059E5
109 109 1.12590018E6
109 110 -5.6169959E5
110 109 -5.6420059E5
110 110 1.12590018E6
110 111 -5.6169959E5
111 110 -5.6420059E5
111 111 1.12590018E6
111 112 -5.6169959E5
112 111 -5.6420059E5
112 112 1.12590018E6
112 113 -5.6169959E5
113 112 -5.6420059E5
113 113 1.12590018E6
113 114 -5.6169959E5
114 113 -5.6420059E5
114 114 1.12590018E6
114 115 -5.6169959E5
115 114 -5.6420059E5
115 115 1.12590018E6
115 116 -5.6169959E5
116 115 -5.6420059E5
116 116 1.12590018E6
116 117 -5.6169959E5
117 116 -5.6420059E5
117 117 1.12590018E6
117 118 -5.6169959E5
118 117 -5.6420059E5
118 118 1.12590018E6
118 119 -5.6169959E5
119 118 -5.6420059E5
119 119 1.12590018E6
119 120 -5.6169959E5
120 119 -5.6420059E5
120 120 1.12590018E6
120 121 -5.6169959E5
121 120 -5.6420059E5
121 121 1.12590018E6
121 122 -5.6169959E5
122 121 -5.6420059E5
122 122 1.12590018E6
122 123 -5.6169959E5
123 122 -5.6420059E5
123 123 1.12590018E6
123 124 -5.6169959E5
124 123 -5.6420059E5
124 124 1.12590018E6
124 125 -5.6169959E5
125 124 -5.6420059E5
125 125 1.12590018E6
125 126 -5.6169959E5
126 125 -5.6420059E5
126 126 1.12590018E6
126 127 -5.6169959E5
127 126 -5.6420059E5
127 127 1.12590018E6
127 128 -5.6169959E5
128 127 -5.6420059E5
128 128 1.12590018E6
128 129 -5.6169959E5
129 128 -5.6420059E5
129 129 1.12590018E6
129 130 -5.6169959E5
130 129 -5.6420059E5
130 130 1.12590018E6
130 131 -5.6169959E5
131 130 -5.6420059E5
131 131 1.12590018E6
131 132 -5.6169959E5
132 131 -5.6420059E5
132 132 1.12590018E6
132 133 -5.6169959E5
133 132 -5.6420059E5
133 133 1.12590018E6
133 134 -5.6169959E5
134 133 -5.6420059E5
134 134 1.12590018E6
134 135 -5.6169959E5
135 134 -5.6420059E5
135 135 1.12590018E6
135 136 -5.6169959E5
136 135 -5.6420059E5
136 136 1.12590018E6
136 137 -5.6169959E5
137 136 -5.6420059E5
137 137 1.12590018E6
137 138 -5.6169959E5
138 137 -5.6420059E5
138 138 1.12590018E6
138 139 -5.6169959E5
139 138 -5.6420059E5
139 139 1.12590018E6
139 140 -5.6169959E5
140 139 -5.6420059E5
140 140 1.12590018E6
140 141 -5.6169959E5
141 140 -5.6420059E5
141 141 1.12590018E6
141 142 -5.6169959E5
142 141 -5.6420059E5
142 142 1.12590018E6
142 143 -5.6169959E5
143 142 -5.6420059E5
143 143 1.12590018E6
143 144 -5.6169959E5
144 143 -5.6420059E5
144 144 1.12590018E6
144 145 -5.6169959E5
145 144 -5.6420059E5
145 145 1.12590018E6
145 146 -5.6169959E5
146 145 -5.6420059E5
146 146 1.12590018E6
146 147 -5.6169959E5
147 146 -5.6420059E5
147 147 1.12590018E6
147 148 -5.6169959E5
148 147 -5.6420059E5
148 148 1.12590018E6
148 149 -5.6169959E5
149 148 -5.6420059E5
149 149 1.12590018E6
149 150 -5.6169959E5
150 149 -5.6420059E5
150 150 1.12590018E6
150 151 -5.6169959E5
151 150 -5.6420059E5
151 151 1.12590018E6
151 152 -5.6169959E5
152 151 -5.6420059E5
152 152 1.12590018E6
152 153 -5.6169959E5
153 152 -5.6420059E5
153 153 1.12590018E6
153 154 -5.6169959E5
154 153 -5.6420059E5
154 154 1.12590018E6
154 155 -5.6169959E5
155 154 -5.6420059E5
155 155 1.12590018E6
155 156 -5.6169959E5
156 155 -5.6420059E5
156 156 1.12590018E6
156 157 -5.6169959E5
157 156 -5.6420059E5
157 157 1.12590018E6
157 158 -5.6169959E5
158 157 -5.6420059E5
158 158 1.12590018E6
158 159 -5.6169959E5
159 158 -5.6420059E5
159 159 1.12590018E6
159 160 -5.6169959E5
160 159 -5.6420059E5
160 160 1.12590018E6
160 161 -5.6169959E5
161 160 -5.6420059E5
161 161 1.12590018E6
161 162 -5.6169959E5
162 161 -5.6420059E5
162 162 1.12590018E6
162 163 -5.6169959E5
163 162 -5.6420059E5
163 163 1.12590018E6
163 164 -5.6169959E5
164 163 -5.6420059E5
164 164 1.12590018E6
164 165 -5.6169959E5
165 164 -5.6420059E5
165 165 1.12590018E6
165 166 -5.6169959E5
166 165 -5.6420059E5
166 166 1.12590018E6
166 167 -5.6169959E5
167 166 -5.6420059E5
167 167 1.12590018E6
167 168 -5.6169959E5
168 167 -5.6420059E5
168 168 1.12590018E6
168 169 -5.6169959E5
169 168 -5.6420059E5
169 169 1.12590018E6
169 170 -5.6169959E5
170 169 -5.6420059E5
170 170 1.12590018E6
170 171 -5.6169959E5
171 170 -5.6420059E5
171 171 1.12590018E6
171 172 -5.6169959E5
172 171 -5.6420059E5
172 172 1.12590018E6
172 173 -5.6169959E5
173 172 -5.6420059E5
173 173 1.12590018E6
173 174 -5.6169959E5
174 173 -5.6420059E5
174 174 1.12590018E6
174 175 -5.6169959E5
175 174 -5.6420059E5
175 175 1.12590018E6
175 176 -5.6169959E5
176 175 -5.6420059E5
176 176 1.12590018E6
176 177 -5.6169959E5
177 176 -5.6420059E5
177 177 1.12590018E6
177 178 -5.6169959E5
178 177 -5.6420059E5
178 178 1.12590018E6
178 179 -5.6169959E5
179 178 -5.6420059E5
179 179 1.12590018E6
179 180 -5.6169959E5
180 179 -5.6420059E5
180 180 1.12590018E6
180 181 -5.6169959E5
181 180 -5.6420059E5
181 181 1.12590018E6
181 182 -5.6169959E5
182 181 -5.6420059E5
182 182 1.12590018E6
182 183 -5.6169959E5
183 182 -5.6420059E5
183 183 1.12590018E6
183 184 -5.6169959E5
184 183 -5.6420059E5
184 184 1.12590018E6
184 185 -5.6169959E5
185 184 -5.6420059E5
185 185 1.12590018E6
185 186 -5.6169959E5
186 185 -5.6420059E5
186 186 1.12590018E6
186 187 -5.6169959E5
187 186 -5.6420059E5
187 187 1.12590018E6
187 188 -5.6169959E5
188 187 -5.6420059E5
188 188 1.12590018E6
188 189 -5.6169959E5
189 188 -5.6420059E5
189 189 1.12590018E6
189 190 -5.6169959E5
190 189 -5.6420059E5
190 190 1.12590018E6
190 191 -5.6169959E5
191 190 -5.6420059E5
191 191 1.12590018E6
191 192 -5.6169959E5
192 191 -5.6420059E5
192 192 1.12590018E6
192 193 -5.6169959E5
193 192 -5.6420059E5
193 193 1.12590018E6
193 194 -5.6169959E5
194 193 -5.6420059E5
194 194 1.12590018E6
194 195 -5.6169959E5
195 194 -5.6420059E5
195 195 1.12590018E6
195 196 -5.6169959E5
196 195 -5.6420059E5
196 196 1.12590018E6
196 197 -5.6169959E5
197 196 -5.6420059E5
197 197 1.12590018E6
197 198 -5.6169959E5
198 197 -5.6420059E5
198 198 1.12590018E6
198 199 -5.6169959E5
199 198 -5.6420059E5
199 199 1.12590018E6
199 200 -5.6169959E5
200 199 -5.6420059E5
200 200 1.12590018E6
200 201 -5.6169959E5
201 200 -5.6420059E5
201 201 1.12590018E6
201 202 -5.6169959E5
202 201 -5.6420059E5
202 202 1.12590018E6
202 203 -5.6169959E5
203 202 -5.6420059E5
203 203 1.12590018E6
203 204 -5.6169959E5
204 203 -5.6420059E5
204 204 1.12590018E6
204 205 -5.6169959E5
205 204 -5.6420059E5
205 205 1.12590018E6
205 206 -5.6169959E5
206 205 -5.6420059E5
206 206 1.12590018E6
206 207 -5.6169959E5
207 206 -5.6420059E5
207 207 1.12590018E6
207 208 -5.6169959E5
208 207 -5.6420059E5
208 208 1.12590018E6
208 209 -5.6169959E5
209 208 -5.6420059E5
209 209 1.12590018E6
209 210 -5.6169959E5
210 209 -5.6420059E5
210 210 1.12590018E6
210 211 -5.6169959E5
211 210 -5.6420059E5
211 211 1.12590018E6
211 212 -5.6169959E5
212 211 -5.6420059E5
212 212 1.12590018E6
212 213 -5.6169959E5
213 212 -5.6420059E5
213 213 1.12590018E6
213 214 -5.6169959E5
214 213 -5.6420059E5
214 214 1.12590018E6
214 215 -5.6169959E5
215 214 -5.6420059E5
215 215 1.12590018E6
215 216 -5.6169959E5
216 215 -5.6420059E5
216 216 1.12590018E6
216 217 -5.6169959E5
217 216 -5.6420059E5
217 217 1.12590018E6
217 218 -5.6169959E5
218 217 -5.6420059E5
218 218 1.12590018E6
218 219 -5.6169959E5
219 218 -5.6420059E5
219 219 1.12590018E6
219 220 -5.6169959E5
220 219 -5.6420059E5
220 220 1.12590018E6
220 221 -5.6169959E5
221 220 -5.6420059E5
221 221 1.12590018E6
221 222 -5.6169959E5
222 221 -5.6420059E5
222 222 1.12590018E6
222 223 -5.6169959E5
223 222 -5.6420059E5
223 223 1.12590018E6
223 224 -5.6169959E5
224 223 -5.6420059E5
224 224 1.12590018E6
224 225 -5.6169959E5
225 224 -5.6420059E5
225 225 1.12590018E6
225 226 -5.6169959E5
226 225 -5.6420059E5
226 226 1.12590018E6
226 227 -5.6169959E5
227 226 -5.6420059E5
227 227 1.12590018E6
227 228 -5.6169959E5
228 227 -5.6420059E5
228 228 1.12590018E6
228 229 -5.6169959E5
229 228 -5.6420059E5
229 229 1.12590018E6
229 230 -5.6169959E5
230 229 -5.6420059E5
230 230 1.12590018E6
230 231 -5.6169959E5
231 230 -5.6420059E5
231 231 1.12590018E6
231 232 -5.6169959E5
232 231 -5.6420059E5
232 232 1.12590018E6
232 233 -5.6169959E5
233 232 -5.6420059E5
233 233 1.12590018E6
233 234 -5.6169959E5
234 233 -5.6420059E5
234 234 1.12590018E6
234 235 -5.6169959E5
235 234 -5.6420059E5
235 235 1.12590018E6
235 236 -5.6169959E5
236 235 -5.6420059E5
236 236 1.12590018E6
236 237 -5.6169959E5
237 236 -5.6420059E5
237 237 1.12590018E6
237 238 -5.6169959E5
238 237 -5.6420059E5
238 238 1.12590018E6
238 239 -5.6169959E5
239 238 -5.6420059E5
239 239 1.12590018E6
239 240 -5.6169959E5
240 239 -5.6420059E5
240 240 1.12590018E6
240 241 -5.6169959E5
241 240 -5.6420059E5
241 241 1.12590018E6
241 242 -5.6169959E5
242 241 -5.6420059E5
242 242 1.12590018E6
242 243 -5.6169959E5
243 242 -5.6420059E5
243 243 1.12590018E6
243 244 -5.6169959E5
244 243 -5.6420059E5
244 244 1.12590018E6
244 245 -5.6169959E5
245 244 -5.6420059E5
245 245 1.12590018E6
245 246 -5.6169959E5
246 245 -5.6420059E5
246 246 1.12590018E6
246 247 -5.6169959E5
247 246 -5.6420059E5
247 247 1.12590018E6
247 248 -5.6169959E5
248 247 -5.6420059E5
248 248 1.12590018E6
248 249 -5.6169959E5
249 248 -5.6420059E5
249 249 1.12590018E6
249 250 -5.6169959E5
250 249 -5.6420059E5
250 250 1.12590018E6
250 251 -5.6169959E5
251 250 -5.6420059E5
251 251 1.12590018E6
251 252 -5.6169959E5
252 251 -5.6420059E5
252 252 1.12590018E6
252 253 -5.6169959E5
253 252 -5.6420059E5
253 253 1.12590018E6
253 254 -5.6169959E5
254 253 -5.6420059E5
254 254 1.12590018E6
254 255 -5.6169959E5
255 254 -5.6420059E5
255 255 1.12590018E6
255 256 -5.6169959E5
256 255 -5.6420059E5
256 256 1.12590018E6
256 257 -5.6169959E5
257 256 -5.6420059E5
257 257 1.12590018E6
257 258 -5.6169959E5
258 257 -5.6420059E5
258 258 1.12590018E6
258 259 -5.6169959E5
259 258 -5.6420059E5
259 259 1.12590018E6
259 260 -5.6169959E5
260 259 -5.6420059E5
260 260 1.12590018E6
260 261 -5.6169959E5
261 260 -5.6420059E5
261 261 1.12590018E6
261 262 -5.6169959E5
262 261 -5.6420059E5
262 262 1.12590018E6
262 263 -5.6169959E5
263 262 -5.6420059E5
263 263 1.12590018E6
263 264 -5.6169959E5
264 263 -5.6420059E5
264 264 1.12590018E6
264 265 -5.6169959E5
265 264 -5.6420059E5
265 265 1.12590018E6
265 266 -5.6169959E5
266 265 -5.6420059E5
266 266 1.12590018E6
266 267 -5.6169959E5
267 266 -5.6420059E5
267 267 1.12590018E6
267 268 -5.6169959E5
268 267 -5.6420059E5
268 268 1.12590018E6
268 269 -5.6169959E5
269 268 -5.6420059E5
269 269 1.12590018E6
269 270 -5.6169959E5
270 269 -5.6420059E5
270 270 1.12590018E6
270 271 -5.6169959E5
271 270 -5.6420059E5
271 271 1.12590018E6
271 272 -5.6169959E5
272 271 -5.6420059E5
272 272 1.12590018E6
272 273 -5.6169959E5
273 272 -5.6420059E5
273 273 1.12590018E6
273 274 -5.6169959E5
274 273 -5.6420059E5
274 274 1.12590018E6
274 275 -5.6169959E5
275 274 -5.6420059E5
275 275 1.12590018E6
275 276 -5.6169959E5
276 275 -5.6420059E5
276 276 1.12590018E6
276 277 -5.6169959E5
277 276 -5.6420059E5
277 277 1.12590018E6
277 278 -5.6169959E5
278 277 -5.6420059E5
278 278 1.12590018E6
278 279 -5.6169959E5
279 278 -5.6420059E5
279 279 1.12590018E6
279 280 -5.6169959E5
280 279 -5.6420059E5
280 280 1.12590018E6
280 281 -5.6169959E5
281 280 -5.6420059E5
281 281 1.12590018E6
281 282 -5.6169959E5
282 281 -5.6420059E5
282 282 1.12590018E6
282 283 -5.6169959E5
283 282 -5.6420059E5
283 283 1.12590018E6
283 284 -5.6169959E5
284 283 -5.6420059E5
284 284 1.12590018E6
284 285 -5.6169959E5
285 284 -5.6420059E5
285 285 1.12590018E6
285 286 -5.6169959E5
286 285 -5.6420059E5
286 286 1.12590018E6
286 287 -5.6169959E5
287 286 -5.6420059E5
287 287 1.12590018E6
287 288 -5.6169959E5
288 287 -5.6420059E5
288 288 1.12590018E6
288 289 -5.6169959E5
289 288 -5.6420059E5
289 289 1.12590018E6
289 290 -5.6169959E5
290 289 -5.6420059E5
290 290 1.12590018E6
290 291 -5.6169959E5
291 290 -5.6420059E5
291 291 1.12590018E6
291 292 -5.6169959E5
292 291 -5.6420059E5
292 292 1.12590018E6
292 293 -5.6169959E5
293 292 -5.6420059E5
293 293 1.12590018E6
293 294 -5.6169959E5
294 293 -5.6420059E5
294 294 1.12590018E6
294 295 -5.6169959E5
295 294 -5.6420059E5
295 295 1.12590018E6
295 296 -5.6169959E5
296 295 -5.6420059E5
296 296 1.12590018E6
296 297 -5.6169959E5
297 296 -5.6420059E5
297 297 1.12590018E6
297 298 -5.6169959E5
298 297 -5.6420059E5
298 298 1.12590018E6
298 299 -5.6169959E5
299 298 -5.6420059E5
299 299 1.12590018E6
299 300 -5.6169959E5
300 299 -5.6420059E5
300 300 1.12590018E6
300 301 -5.6169959E5
301 300 -5.6420059E5
301 301 1.12590018E6
301 302 -5.6169959E5
302 301 -5.6420059E5
302 302 1.12590018E6
302 303 -5.6169959E5
303 302 -5.6420059E5
303 303 1.12590018E6
303 304 -5.6169959E5
304 303 -5.6420059E5
304 304 1.12590018E6
304 305 -5.6169959E5
305 304 -5.6420059E5
305 305 1.12590018E6
305 306 -5.6169959E5
306 305 -5.6420059E5
306 306 1.12590018E6
306 307 -5.6169959E5
307 306 -5.6420059E5
307 307 1.12590018E6
307 308 -5.6169959E5
308 307 -5.6420059E5
308 308 1.12590018E6
308 309 -5.6169959E5
309 308 -5.6420059E5
309 309 1.12590018E6
309 310 -5.6169959E5
310 309 -5.6420059E5
310 310 1.12590018E6
310 311 -5.6169959E5
311 310 -5.6420059E5
311 311 1.12590018E6
311 312 -5.6169959E5
312 311 -5.6420059E5
312 312 1.12590018E6
312 313 -5.6169959E5
313 312 -5.6420059E5
313 313 1.12590018E6
313 314 -5.6169959E5
314 313 -5.6420059E5
314 314 1.12590018E6
314 315 -5.6169959E5
315 314 -5.6420059E5
315 315 1.12590018E6
315 316 -5.6169959E5
316 315 -5.6420059E5
316 316 1.12590018E6
316 317 -5.6169959E5
317 316 -5.6420059E5
317 317 1.12590018E6
317 318 -5.6169959E5
318 317 -5.6420059E5
318 318 1.12590018E6
318 319 -5.6169959E5
319 318 -5.6420059E5
319 319 1.12590018E6
319 320 -5.6169959E5
320 319 -5.6420059E5
320 320 1.12590018E6
320 321 -5.6169959E5
321 320 -5.6420059E5
321 321 1.12590018E6
321 322 -5.6169959E5
322 321 -5.6420059E5
322 322 1.12590018E6
322 323 -5.6169959E5
323 322 -5.6420059E5
323 323 1.12590018E6
323 324 -5.6169959E5
324 323 -5.6420059E5
324 324 1.12590018E6
324 325 -5.6169959E5
325 324 -5.6420059E5
325 325 1.12590018E6
325 326 -5.6169959E5
326 325 -5.6420059E5
326 326 1.12590018E6
326 327 -5.6169959E5
327 326 -5.6420059E5
327 327 1.12590018E6
327 328 -5.6169959E5
328 327 -5.6420059E5
328 328 1.12590018E6
328 329 -5.6169959E5
329 328 -5.6420059E5
329 329 1.12590018E6
329 330 -5.6169959E5
330 329 -5.6420059E5
330 330 1.12590018E6
330 331 -5.6169959E5
331 330 -5.6420059E5
331 331 1.12590018E6
331 332 -5.6169959E5
332 331 -5.6420059E5
332 332 1.12590018E6
332 333 -5.6169959E5
333 332 -5.6420059E5
333 333 1.12590018E6
333 334 -5.6169959E5
334 333 -5.6420059E5
334 334 1.12590018E6
334 335 -5.6169959E5
335 334 -5.6420059E5
335 335 1.12590018E6
335 336 -5.6169959E5
336 335 -5.6420059E5
336 336 1.12590018E6
336 337 -5.6169959E5
337 336 -5.6420059E5
337 337 1.12590018E6
337 338 -5.6169959E5
338 337 -5.6420059E5
338 338 1.12590018E6
338 339 -5.6169959E5
339 338 -5.6420059E5
339 339 1.12590018E6
339 340 -5.6169959E5
340 339 -5.6420059E5
340 340 1.12590018E6
340 341 -5.6169959E5
341 340 -5.6420059E5
341 341 1.12590018E6
341 342 -5.6169959E5
342 341 -5.6420059E5
342 342 1.12590018E6
342 343 -5.6169959E5
343 342 -5.6420059E5
343 343 1.12590018E6
343 344 -5.6169959E5
344 343 -5.6420059E5
344 344 1.12590018E6
344 345 -5.6169959E5
345 344 -5.6420059E5
345 345 1.12590018E6
345 346 -5.6169959E5
346 345 -5.6420059E5
346 346 1.12590018E6
346 347 -5.6169959E5
347 346 -5.6420059E5
347 347 1.12590018E6
347 348 -5.6169959E5
348 347 -5.6420059E5
348 348 1.12590018E6
348 349 -5.6169959E5
349 348 -5.6420059E5
349 349 1.12590018E6
349 350 -5.6169959E5
350 349 -5.6420059E5
350 350 1.12590018E6
350 351 -5.6169959E5
351 350 -5.6420059E5
351 351 1.12590018E6
351 352 -5.6169959E5
352 351 -5.6420059E5
352 352 1.12590018E6
352 353 -5.6169959E5
353 352 -5.6420059E5
353 353 1.12590018E6
353 354 -5.6169959E5
354 353 -5.6420059E5
354 354 1.12590018E6
354 355 -5.6169959E5
355 354 -5.6420059E5
355 355 1.12590018E6
355 356 -5.6169959E5
356 355 -5.6420059E5
356 356 1.12590018E6
356 357 -5.6169959E5
357 356 -5.6420059E5
357 357 1.12590018E6
357 358 -5.6169959E5
358 357 -5.6420059E5
358 358 1.12590018E6
358 359 -5.6169959E5
359 358 -5.6420059E5
359 359 1.12590018E6
359 360 -5.6169959E5
360 359 -5.6420059E5
360 360 1.12590018E6
360 361 -5.6169959E5
361 360 -5.6420059E5
361 361 1.12590018E6
361 362 -5.6169959E5
362 361 -5.6420059E5
362 362 1.12590018E6
362 363 -5.6169959E5
363 362 -5.6420059E5
363 363 1.12590018E6
363 364 -5.6169959E5
364 363 -5.6420059E5
364 364 1.12590018E6
364 365 -5.6169959E5
365 364 -5.6420059E5
365 365 1.12590018E6
365 366 -5.6169959E5
366 365 -5.6420059E5
366 366 1.12590018E6
366 367 -5.6169959E5
367 366 -5.6420059E5
367 367 1.12590018E6
367 368 -5.6169959E5
368 367 -5.6420059E5
368 368 1.12590018E6
368 369 -5.6169959E5
369 368 -5.6420059E5
369 369 1.12590018E6
369 370 -5.6169959E5
370 369 -5.6420059E5
370 370 1.12590018E6
370 371 -5.6169959E5
371 370 -5.6420059E5
371 371 1.12590018E6
371 372 -5.6169959E5
372 371 -5.6420059E5
372 372 1.12590018E6
372 373 -5.6169959E5
373 372 -5.6420059E5
373 373 1.12590018E6
373 374 -5.6169959E5
374 373 -5.6420059E5
374 374 1.12590018E6
374 375 -5.6169959E5
375 374 -5.6420059E5
375 375 1.12590018E6
375 376 -5.6169959E5
376 375 -5.6420059E5
376 376 1.12590018E6
376 377 -5.6169959E5
377 376 -5.6420059E5
377 377 1.12590018E6
377 378 -5.6169959E5
378 377 -5.6420059E5
378 378 1.12590018E6
378 379 -5.6169959E5
379 378 -5.6420059E5
379 379 1.12590018E6
379 380 -5.6169959E5
380 379 -5.6420059E5
380 380 1.12590018E6
380 381 -5.6169959E5
381 380 -5.6420059E5
381 381 1.12590018E6
381 382 -5.6169959E5
382 381 -5.6420059E5
382 382 1.12590018E6
382 383 -5.6169959E5
383 382 -5.6420059E5
383 383 1.12590018E6
383 384 -5.6169959E5
384 383 -5.6420059E5
384 384 1.12590018E6
384 385 -5.6169959E5
385 384 -5.6420059E5
385 385 1.12590018E6
385 386 -5.6169959E5
386 385 -5.6420059E5
386 386 1.12590018E6
386 387 -5.6169959E5
387 386 -5.6420059E5
387 387 1.12590018E6
387 388 -5.6169959E5
388 387 -5.6420059E5
388 388 1.12590018E6
388 389 -5.6169959E5
389 388 -5.6420059E5
389 389 1.12590018E6
389 390 -5.6169959E5
390 389 -5.6420059E5
390 390 1.12590018E6
390 391 -5.6169959E5
391 390 -5.6420059E5
391 391 1.12590018E6
391 392 -5.6169959E5
392 391 -5.6420059E5
392 392 1.12590018E6
392 393 -5.6169959E5
393 392 -5.6420059E5
393 393 1.12590018E6
393 394 -5.6169959E5
394 393 -5.6420059E5
394 394 1.12590018E6
394 395 -5.6169959E5
395 394 -5.6420059E5
395 395 1.12590018E6
395 396 -5.6169959E5
396 395 -5.6420059E5
396 396 1.12590018E6
396 397 -5.6169959E5
397 396 -5.6420059E5
397 397 1.12590018E6
397 398 -5.6169959E5
398 397 -5.6420059E5
398 398 1.12590018E6
398 399 -5.6169959E5
399 398 -5.6420059E5
399 399 1.12590018E6
399 400 -5.6169959E5
400 399 -5.6420059E5
400 400 1.12590018E6
400 401 -5.6169959E5
401 400 -5.6420059E5
401 401 1.12590018E6
401 402 -5.6169959E5
402 401 -5.6420059E5
402 402 1.12590018E6
402 403 -5.6169959E5
403 402 -5.6420059E5
403 403 1.12590018E6
403 404 -5.6169959E5
404 403 -5.6420059E5
404 404 1.12590018E6
404 405 -5.6169959E5
405 404 -5.6420059E5
405 405 1.12590018E6
405 406 -5.6169959E5
406 405 -5.6420059E5
406 406 1.12590018E6
406 407 -5.6169959E5
407 406 -5.6420059E5
407 407 1.12590018E6
407 408 -5.6169959E5
408 407 -5.6420059E5
408 408 1.12590018E6
408 409 -5.6169959E5
409 408 -5.6420059E5
409 409 1.12590018E6
409 410 -5.6169959E5
410 409 -5.6420059E5
410 410 1.12590018E6
410 411 -5.6169959E5
411 410 -5.6420059E5
411 411 1.12590018E6
411 412 -5.6169959E5
412 411 -5.6420059E5
412 412 1.12590018E6
412 413 -5.6169959E5
413 412 -5.6420059E5
413 413 1.12590018E6
413 414 -5.6169959E5
414 413 -5.6420059E5
414 414 1.12590018E6
414 415 -5.6169959E5
415 414 -5.6420059E5
415 415 1.12590018E6
415 416 -5.6169959E5
416 415 -5.6420059E5
416 416 1.12590018E6
416 417 -5.6169959E5
417 416 -5.6420059E5
417 417 1.12590018E6
417 418 -5.6169959E5
418 417 -5.6420059E5
418 418 1.12590018E6
418 419 -5.6169959E5
419 418 -5.6420059E5
419 419 1.12590018E6
419 420 -5.6169959E5
420 419 -5.6420059E5
420 420 1.12590018E6
420 421 -5.6169959E5
421 420 -5.6420059E5
421 421 1.12590018E6
421 422 -5.6169959E5
422 421 -5.6420059E5
422 422 1.12590018E6
422 423 -5.6169959E5
423 422 -5.6420059E5
423 423 1.12590018E6
423 424 -5.6169959E5
424 423 -5.6420059E5
424 424 1.12590018E6
424 425 -5.6169959E5
425 424 -5.6420059E5
425 425 1.12590018E6
425 426 -5.6169959E5
426 425 -5.6420059E5
426 426 1.12590018E6
426 427 -5.6169959E5
427 426 -5.6420059E5
427 427 1.12590018E6
427 428 -5.6169959E5
428 427 -5.6420059E5
428 428 1.12590018E6
428 429 -5.6169959E5
429 428 -5.6420059E5
429 429 1.12590018E6
429 430 -5.6169959E5
430 429 -5.6420059E5
430 430 1.12590018E6
430 431 -5.6169959E5
431 430 -5.6420059E5
431 431 1.12590018E6
431 432 -5.6169959E5
432 431 -5.6420059E5
432 432 1.12590018E6
432 433 -5.6169959E5
433 432 -5.6420059E5
433 433 1.12590018E6
433 434 -5.6169959E5
434 433 -5.6420059E5
434 434 1.12590018E6
434 435 -5.6169959E5
435 434 -5.6420059E5
435 435 1.12590018E6
435 436 -5.6169959E5
436 435 -5.6420059E5
436 436 1.12590018E6
436 437 -5.6169959E5
437 436 -5.6420059E5
437 437 1.12590018E6
437 438 -5.6169959E5
438 437 -5.6420059E5
438 438 1.12590018E6
438 439 -5.6169959E5
439 438 -5.6420059E5
439 439 1.12590018E6
439 440 -5.6169959E5
440 439 -5.6420059E5
440 440 1.12590018E6
440 441 -5.6169959E5
441 440 -5.6420059E5
441 441 1.12590018E6
441 442 -5.6169959E5
442 441 -5.6420059E5
442 442 1.12590018E6
442 443 -5.6169959E5
443 442 -5.6420059E5
443 443 1.12590018E6
443 444 -5.6169959E5
444 443 -5.6420059E5
444 444 1.12590018E6
444 445 -5.6169959E5
445 444 -5.6420059E5
445 445 1.12590018E6
445 446 -5.6169959E5
446 445 -5.6420059E5
446 446 1.12590018E6
446 447 -5.6169959E5
447 446 -5.6420059E5
447 447 1.12590018E6
447 448 -5.6169959E5
448 447 -5.6420059E5
448 448 1.12590018E6
448 449 -5.6169959E5
449 448 -5.6420059E5
449 449 1.12590018E6
449 450 -5.6169959E5
450 449 -5.6420059E5
450 450 1.12590018E6
450 451 -5.6169959E5
451 450 -5.6420059E5
451 451 1.12590018E6
451 452 -5.6169959E5
452 451 -5.6420059E5
452 452 1.12590018E6
452 453 -5.6169959E5
453 452 -5.6420059E5
453 453 1.12590018E6
453 454 -5.6169959E5
454 453 -5.6420059E5
454 454 1.12590018E6
454 455 -5.6169959E5
455 454 -5.6420059E5
455 455 1.12590018E6
455 456 -5.6169959E5
456 455 -5.6420059E5
456 456 1.12590018E6
456 457 -5.6169959E5
457 456 -5.6420059E5
457 457 1.12590018E6
457 458 -5.6169959E5
458 457 -5.6420059E5
458 458 1.12590018E6
458 459 -5.6169959E5
459 458 -5.6420059E5
459 459 1.12590018E6
459 460 -5.6169959E5
460 459 -5.6420059E5
460 460 1.12590018E6
460 461 -5.6169959E5
461 460 -5.6420059E5
461 461 1.12590018E6
461 462 -5.6169959E5
462 461 -5.6420059E5
462 462 1.12590018E6
462 463 -5.6169959E5
463 462 -5.6420059E5
463 463 1.12590018E6
463 464 -5.6169959E5
464 463 -5.6420059E5
464 464 1.12590018E6
464 465 -5.6169959E5
465 464 -5.6420059E5
465 465 1.12590018E6
465 466 -5.6169959E5
466 465 -5.6420059E5
466 466 1.12590018E6
466 467 -5.6169959E5
467 466 -5.6420059E5
467 467 1.12590018E6
467 468 -5.6169959E5
468 467 -5.6420059E5
468 468 1.12590018E6
468 469 -5.6169959E5
469 468 -5.6420059E5
469 469 1.12590018E6
469 470 -5.6169959E5
470 469 -5.6420059E5
470 470 1.12590018E6
470 471 -5.6169959E5
471 470 -5.6420059E5
471 471 1.12590018E6
471 472 -5.6169959E5
472 471 -5.6420059E5
472 472 1.12590018E6
472 473 -5.6169959E5
473 472 -5.6420059E5
473 473 1.12590018E6
473 474 -5.6169959E5
474 473 -5.6420059E5
474 474 1.12590018E6
474 475 -5.6169959E5
475 474 -5.6420059E5
475 475 1.12590018E6
475 476 -5.6169959E5
476 475 -5.6420059E5
476 476 1.12590018E6
476 477 -5.6169959E5
477 476 -5.6420059E5
477 477 1.12590018E6
477 478 -5.6169959E5
478 477 -5.6420059E5
478 478 1.12590018E6
478 479 -5.6169959E5
479 478 -5.6420059E5
479 479 1.12590018E6
479 480 -5.6169959E5
480 479 -5.6420059E5
480 480 1.12590018E6
480 481 -5.6169959E5
481 480 -5.6420059E5
481 481 1.12590018E6
481 482 -5.6169959E5
482 481 -5.6420059E5
482 482 1.12590018E6
482 483 -5.6169959E5
483 482 -5.6420059E5
483 483 1.12590018E6
483 484 -5.6169959E5
484 483 -5.6420059E5
484 484 1.12590018E6
484 485 -5.6169959E5
485 484 -5.6420059E5
485 485 1.12590018E6
485 486 -5.6169959E5
486 485 -5.6420059E5
486 486 1.12590018E6
486 487 -5.6169959E5
487 486 -5.6420059E5
487 487 1.12590018E6
487 488 -5.6169959E5
488 487 -5.6420059E5
488 488 1.12590018E6
488 489 -5.6169959E5
489 488 -5.6420059E5
489 489 1.12590018E6
489 490 -5.6169959E5
490 489 -5.6420059E5
490 490 1.12590018E6
490 491 -5.6169959E5
491 490 -5.6420059E5
491 491 1.12590018E6
491 492 -5.6169959E5
492 491 -5.6420059E5
492 492 1.12590018E6
492 493 -5.6169959E5
493 492 -5.6420059E5
493 493 1.12590018E6
493 494 -5.6169959E5
494 493 -5.6420059E5
494 494 1.12590018E6
494 495 -5.6169959E5
495 494 -5.6420059E5
495 495 1.12590018E6
495 496 -5.6169959E5
496 495 -5.6420059E5
496 496 1.12590018E6
496 497 -5.6169959E5
497 496 -5.6420059E5
497 497 1.12590018E6
497 498 -5.6169959E5
498 497 -5.6420059E5
498 498 1.12590018E6
498 499 -5.6169959E5
499 498 -5.6420059E5
499 499 1.12590018E6
499 500 -5.6169959E5
500 499 -5.6420059E5
500 500 1.12590018E6
500 501 -5.6169959E5
501 500 -5.6420059E5
501 501 1.12590018E6
501 502 -5.6169959E5
502 501 -5.6420059E5
502 502 1.12590018E6
502 503 -5.6169959E5
503 502 -5.6420059E5
503 503 1.12590018E6
503 504 -5.6169959E5
504 503 -5.6420059E5
504 504 1.12590018E6
504 505 -5.6169959E5
505 504 -5.6420059E5
505 505 1.12590018E6
505 506 -5.6169959E5
506 505 -5.6420059E5
506 506 1.12590018E6
506 507 -5.6169959E5
507 506 -5.6420059E5
507 507 1.12590018E6
507 508 -5.6169959E5
508 507 -5.6420059E5
508 508 1.12590018E6
508 509 -5.6169959E5
509 508 -5.6420059E5
509 509 1.12590018E6
509 510 -5.6169959E5
510 509 -5.6420059E5
510 510 1.12590018E6
510 511 -5.6169959E5
511 510 -5.6420059E5
511 511 1.12590018E6
511 512 -5.6169959E5
512 511 -5.6420059E5
512 512 1.12590018E6
512 513 -5.6169959E5
513 512 -5.6420059E5
513 513 1.12590018E6
513 514 -5.6169959E5
514 513 -5.6420059E5
514 514 1.12590018E6
514 515 -5.6169959E5
515 514 -5.6420059E5
515 515 1.12590018E6
515 516 -5.6169959E5
516 515 -5.6420059E5
516 516 1.12590018E6
516 517 -5.6169959E5
517 516 -5.6420059E5
517 517 1.12590018E6
517 518 -5.6169959E5
518 517 -5.6420059E5
518 518 1.12590018E6
518 519 -5.6169959E5
519 518 -5.6420059E5
519 519 1.12590018E6
519 520 -5.6169959E5
520 519 -5.6420059E5
520 520 1.12590018E6
520 521 -5.6169959E5
521 520 -5.6420059E5
521 521 1.12590018E6
521 522 -5.6169959E5
522 521 -5.6420059E5
522 522 1.12590018E6
522 523 -5.6169959E5
523 522 -5.6420059E5
523 523 1.12590018E6
523 524 -5.6169959E5
524 523 -5.6420059E5
524 524 1.12590018E6
524 525 -5.6169959E5
525 524 -5.6420059E5
525 525 1.12590018E6
525 526 -5.6169959E5
526 525 -5.6420059E5
526 526 1.12590018E6
526 527 -5.6169959E5
527 526 -5.6420059E5
527 527 1.12590018E6
527 528 -5.6169959E5
528 527 -5.6420059E5
528 528 1.12590018E6
528 529 -5.6169959E5
529 528 -5.6420059E5
529 529 1.12590018E6
529 530 -5.6169959E5
530 529 -5.6420059E5
530 530 1.12590018E6
530 531 -5.6169959E5
531 530 -5.6420059E5
531 531 1.12590018E6
531 532 -5.6169959E5
532 531 -5.6420059E5
532 532 1.12590018E6
532 533 -5.6169959E5
533 532 -5.6420059E5
533 533 1.12590018E6
533 534 -5.6169959E5
534 533 -5.6420059E5
534 534 1.12590018E6
534 535 -5.6169959E5
535 534 -5.6420059E5
535 535 1.12590018E6
535 536 -5.6169959E5
536 535 -5.6420059E5
536 536 1.12590018E6
536 537 -5.6169959E5
537 536 -5.6420059E5
537 537 1.12590018E6
537 538 -5.6169959E5
538 537 -5.6420059E5
538 538 1.12590018E6
538 539 -5.6169959E5
539 538 -5.6420059E5
539 539 1.12590018E6
539 540 -5.6169959E5
540 539 -5.6420059E5
540 540 1.12590018E6
540 541 -5.6169959E5
541 540 -5.6420059E5
541 541 1.12590018E6
541 542 -5.6169959E5
542 541 -5.6420059E5
542 542 1.12590018E6
542 543 -5.6169959E5
543 542 -5.6420059E5
543 543 1.12590018E6
543 544 -5.6169959E5
544 543 -5.6420059E5
544 544 1.12590018E6
544 545 -5.6169959E5
545 544 -5.6420059E5
545 545 1.12590018E6
545 546 -5.6169959E5
546 545 -5.6420059E5
546 546 1.12590018E6
546 547 -5.6169959E5
547 546 -5.6420059E5
547 547 1.12590018E6
547 548 -5.6169959E5
548 547 -5.6420059E5
548 548 1.12590018E6
548 549 -5.6169959E5
549 548 -5.6420059E5
549 549 1.12590018E6
549 550 -5.6169959E5
550 549 -5.6420059E5
550 550 1.12590018E6
550 551 -5.6169959E5
551 550 -5.6420059E5
551 551 1.12590018E6
551 552 -5.6169959E5
552 551 -5.6420059E5
552 552 1.12590018E6
552 553 -5.6169959E5
553 552 -5.6420059E5
553 553 1.12590018E6
553 554 -5.6169959E5
554 553 -5.6420059E5
554 554 1.12590018E6
554 555 -5.6169959E5
555 554 -5.6420059E5
555 555 1.12590018E6
555 556 -5.6169959E5
556 555 -5.6420059E5
556 556 1.12590018E6
556 557 -5.6169959E5
557 556 -5.6420059E5
557 557 1.12590018E6
557 558 -5.6169959E5
558 557 -5.6420059E5
558 558 1.12590018E6
558 559 -5.6169959E5
559 558 -5.6420059E5
559 559 1.12590018E6
559 560 -5.6169959E5
560 559 -5.6420059E5
560 560 1.12590018E6
560 561 -5.6169959E5
561 560 -5.6420059E5
561 561 1.12590018E6
561 562 -5.6169959E5
562 561 -5.6420059E5
562 562 1.12590018E6
562 563 -5.6169959E5
563 562 -5.6420059E5
563 563 1.12590018E6
563 564 -5.6169959E5
564 563 -5.6420059E5
564 564 1.12590018E6
564 565 -5.6169959E5
565 564 -5.6420059E5
565 565 1.12590018E6
565 566 -5.6169959E5
566 565 -5.6420059E5
566 566 1.12590018E6
566 567 -5.6169959E5
567 566 -5.6420059E5
567 567 1.12590018E6
567 568 -5.6169959E5
568 567 -5.6420059E5
568 568 1.12590018E6
568 569 -5.6169959E5
569 568 -5.6420059E5
569 569 1.12590018E6
569 570 -5.6169959E5
570 569 -5.6420059E5
570 570 1.12590018E6
570 571 -5.6169959E5
571 570 -5.6420059E5
571 571 1.12590018E6
571 572 -5.6169959E5
572 571 -5.6420059E5
572 572 1.12590018E6
572 573 -5.6169959E5
573 572 -5.6420059E5
573 573 1.12590018E6
573 574 -5.6169959E5
574 573 -5.6420059E5
574 574 1.12590018E6
574 575 -5.6169959E5
575 574 -5.6420059E5
575 575 1.12590018E6
575 576 -5.6169959E5
576 575 -5.6420059E5
576 576 1.12590018E6
576 577 -5.6169959E5
577 576 -5.6420059E5
577 577 1.12590018E6
577 578 -5.6169959E5
578 577 -5.6420059E5
578 578 1.12590018E6
578 579 -5.6169959E5
579 578 -5.6420059E5
579 579 1.12590018E6
579 580 -5.6169959E5
580 579 -5.6420059E5
580 580 1.12590018E6
580 581 -5.6169959E5
581 580 -5.6420059E5
581 581 1.12590018E6
581 582 -5.6169959E5
582 581 -5.6420059E5
582 582 1.12590018E6
582 583 -5.6169959E5
583 582 -5.6420059E5
583 583 1.12590018E6
583 584 -5.6169959E5
584 583 -5.6420059E5
584 584 1.12590018E6
584 585 -5.6169959E5
585 584 -5.6420059E5
585 585 1.12590018E6
585 586 -5.6169959E5
586 585 -5.6420059E5
586 586 1.12590018E6
586 587 -5.6169959E5
587 586 -5.6420059E5
587 587 1.12590018E6
587 588 -5.6169959E5
588 587 -5.6420059E5
588 588 1.12590018E6
588 589 -5.6169959E5
589 588 -5.6420059E5
589 589 1.12590018E6
589 590 -5.6169959E5
590 589 -5.6420059E5
590 590 1.12590018E6
590 591 -5.6169959E5
591 590 -5.6420059E5
591 591 1.12590018E6
591 592 -5.6169959E5
592 591 -5.6420059E5
592 592 1.12590018E6
592 593 -5.6169959E5
593 592 -5.6420059E5
593 593 1.12590018E6
593 594 -5.6169959E5
594 593 -5.6420059E5
594 594 1.12590018E6
594 595 -5.6169959E5
595 594 -5.6420059E5
595 595 1.12590018E6
595 596 -5.6169959E5
596 595 -5.6420059E5
596 596 1.12590018E6
596 597 -5.6169959E5
597 596 -5.6420059E5
597 597 1.12590018E6
597 598 -5.6169959E5
598 597 -5.6420059E5
598 598 1.12590018E6
598 599 -5.6169959E5
599 598 -5.6420059E5
599 599 1.12590018E6
599 600 -5.6169959E5
600 599 -5.6420059E5
600 600 1.12590018E6
600 601 -5.6169959E5
601 600 -5.6420059E5
601 601 1.12590018E6
601 602 -5.6169959E5
602 601 -5.6420059E5
602 602 1.12590018E6
602 603 -5.6169959E5
603 602 -5.6420059E5
603 603 1.12590018E6
603 604 -5.6169959E5
604 603 -5.6420059E5
604 604 1.12590018E6
604 605 -5.6169959E5
605 604 -5.6420059E5
605 605 1.12590018E6
605 606 -5.6169959E5
606 605 -5.6420059E5
606 606 1.12590018E6
606 607 -5.6169959E5
607 606 -5.6420059E5
607 607 1.12590018E6
607 608 -5.6169959E5
608 607 -5.6420059E5
608 608 1.12590018E6
608 609 -5.6169959E5
609 608 -5.6420059E5
609 609 1.12590018E6
609 610 -5.6169959E5
610 609 -5.6420059E5
610 610 1.12590018E6
610 611 -5.6169959E5
611 610 -5.6420059E5
611 611 1.12590018E6
611 612 -5.6169959E5
612 611 -5.6420059E5
612 612 1.12590018E6
612 613 -5.6169959E5
613 612 -5.6420059E5
613 613 1.12590018E6
613 614 -5.6169959E5
614 613 -5.6420059E5
614 614 1.12590018E6
614 615 -5.6169959E5
615 614 -5.6420059E5
615 615 1.12590018E6
615 616 -5.6169959E5
616 615 -5.6420059E5
616 616 1.12590018E6
616 617 -5.6169959E5
617 616 -5.6420059E5
617 617 1.12590018E6
617 618 -5.6169959E5
618 617 -5.6420059E5
618 618 1.12590018E6
618 619 -5.6169959E5
619 618 -5.6420059E5
619 619 1.12590018E6
619 620 -5.6169959E5
620 619 -5.6420059E5
620 620 1.12590018E6
620 621 -5.6169959E5
621 620 -5.6420059E5
621 621 1.12590018E6
621 622 -5.6169959E5
622 621 -5.6420059E5
622 622 1.12590018E6
622 623 -5.6169959E5
623 622 -5.6420059E5
623 623 1.12590018E6
623 624 -5.6169959E5
624 623 -5.6420059E5
624 624 1.12590018E6
624 625 -5.6169959E5
625 624 -5.6420059E5
625 625 1.12590018E6
625 626 -5.6169959E5
626 625 -5.6420059E5
626 626 1.12590018E6
626 627 -5.6169959E5
627 626 -5.6420059E5
627 627 1.12590018E6
627 628 -5.6169959E5
628 627 -5.6420059E5
628 628 1.12590018E6
628 629 -5.6169959E5
629 628 -5.6420059E5
629 629 1.12590018E6
629 630 -5.6169959E5
630 629 -5.6420059E5
630 630 1.12590018E6
630 631 -5.6169959E5
631 630 -5.6420059E5
631 631 1.12590018E6
631 632 -5.6169959E5
632 631 -5.6420059E5
632 632 1.12590018E6
632 633 -5.6169959E5
633 632 -5.6420059E5
633 633 1.12590018E6
633 634 -5.6169959E5
634 633 -5.6420059E5
634 634 1.12590018E6
634 635 -5.6169959E5
635 634 -5.6420059E5
635 635 1.12590018E6
635 636 -5.6169959E5
636 635 -5.6420059E5
636 636 1.12590018E6
636 637 -5.6169959E5
637 636 -5.6420059E5
637 637 1.12590018E6
637 638 -5.6169959E5
638 637 -5.6420059E5
638 638 1.12590018E6
638 639 -5.6169959E5
639 638 -5.6420059E5
639 639 1.12590018E6
639 640 -5.6169959E5
640 639 -5.6420059E5
640 640 1.12590018E6
640 641 -5.6169959E5
641 640 -5.6420059E5
641 641 1.12590018E6
641 642 -5.6169959E5
642 641 -5.6420059E5
642 642 1.12590018E6
642 643 -5.6169959E5
643 642 -5.6420059E5
643 643 1.12590018E6
643 644 -5.6169959E5
644 643 -5.6420059E5
644 644 1.12590018E6
644 645 -5.6169959E5
645 644 -5.6420059E5
645 645 1.12590018E6
645 646 -5.6169959E5
646 645 -5.6420059E5
646 646 1.12590018E6
646 647 -5.6169959E5
647 646 -5.6420059E5
647 647 1.12590018E6
647 648 -5.6169959E5
648 647 -5.6420059E5
648 648 1.12590018E6
648 649 -5.6169959E5
649 648 -5.6420059E5
649 649 1.12590018E6
649 650 -5.6169959E5
650 649 -5.6420059E5
650 650 1.12590018E6
650 651 -5.6169959E5
651 650 -5.6420059E5
651 651 1.12590018E6
651 652 -5.6169959E5
652 651 -5.6420059E5
652 652 1.12590018E6
652 653 -5.6169959E5
653 652 -5.6420059E5
653 653 1.12590018E6
653 654 -5.6169959E5
654 653 -5.6420059E5
654 654 1.12590018E6
654 655 -5.6169959E5
655 654 -5.6420059E5
655 655 1.12590018E6
655 656 -5.6169959E5
656 655 -5.6420059E5
656 656 1.12590018E6
656 657 -5.6169959E5
657 656 -5.6420059E5
657 657 1.12590018E6
657 658 -5.6169959E5
658 657 -5.6420059E5
658 658 1.12590018E6
658 659 -5.6169959E5
659 658 -5.6420059E5
659 659 1.12590018E6
659 660 -5.6169959E5
660 659 -5.6420059E5
660 660 1.12590018E6
660 661 -5.6169959E5
661 660 -5.6420059E5
661 661 1.12590018E6
661 662 -5.6169959E5
662 661 -5.6420059E5
662 662 1.12590018E6
662 663 -5.6169959E5
663 662 -5.6420059E5
663 663 1.12590018E6
663 664 -5.6169959E5
664 663 -5.6420059E5
664 664 1.12590018E6
664 665 -5.6169959E5
665 664 -5.6420059E5
665 665 1.12590018E6
665 666 -5.6169959E5
666 665 -5.6420059E5
666 666 1.12590018E6
666 667 -5.6169959E5
667 666 -5.6420059E5
667 667 1.12590018E6
667 668 -5.6169959E5
668 667 -5.6420059E5
668 668 1.12590018E6
668 669 -5.6169959E5
669 668 -5.6420059E5
669 669 1.12590018E6
669 670 -5.6169959E5
670 669 -5.6420059E5
670 670 1.12590018E6
670 671 -5.6169959E5
671 670 -5.6420059E5
671 671 1.12590018E6
671 672 -5.6169959E5
672 671 -5.6420059E5
672 672 1.12590018E6
672 673 -5.6169959E5
673 672 -5.6420059E5
673 673 1.12590018E6
673 674 -5.6169959E5
674 673 -5.6420059E5
674 674 1.12590018E6
674 675 -5.6169959E5
675 674 -5.6420059E5
675 675 1.12590018E6
675 676 -5.6169959E5
676 675 -5.6420059E5
676 676 1.12590018E6
676 677 -5.6169959E5
677 676 -5.6420059E5
677 677 1.12590018E6
677 678 -5.6169959E5
678 677 -5.6420059E5
678 678 1.12590018E6
678 679 -5.6169959E5
679 678 -5.6420059E5
679 679 1.12590018E6
679 680 -5.6169959E5
680 679 -5.6420059E5
680 680 1.12590018E6
680 681 -5.6169959E5
681 680 -5.6420059E5
681 681 1.12590018E6
681 682 -5.6169959E5
682 681 -5.6420059E5
682 682 1.12590018E6
682 683 -5.6169959E5
683 682 -5.6420059E5
683 683 1.12590018E6
683 684 -5.6169959E5
684 683 -5.6420059E5
684 684 1.12590018E6
684 685 -5.6169959E5
685 684 -5.6420059E5
685 685 1.12590018E6
685 686 -5.6169959E5
686 685 -5.6420059E5
686 686 1.12590018E6
686 687 -5.6169959E5
687 686 -5.6420059E5
687 687 1.12590018E6
687 688 -5.6169959E5
688 687 -5.6420059E5
688 688 1.12590018E6
688 689 -5.6169959E5
689 688 -5.6420059E5
689 689 1.12590018E6
689 690 -5.6169959E5
690 689 -5.6420059E5
690 690 1.12590018E6
690 691 -5.6169959E5
691 690 -5.6420059E5
691 691 1.12590018E6
691 692 -5.6169959E5
692 691 -5.6420059E5
692 692 1.12590018E6
692 693 -5.6169959E5
693 692 -5.6420059E5
693 693 1.12590018E6
693 694 -5.6169959E5
694 693 -5.6420059E5
694 694 1.12590018E6
694 695 -5.6169959E5
695 694 -5.6420059E5
695 695 1.12590018E6
695 696 -5.6169959E5
696 695 -5.6420059E5
696 696 1.12590018E6
696 697 -5.6169959E5
697 696 -5.6420059E5
697 697 1.12590018E6
697 698 -5.6169959E5
698 697 -5.6420059E5
698 698 1.12590018E6
698 699 -5.6169959E5
699 698 -5.6420059E5
699 699 1.12590018E6
699 700 -5.6169959E5
700 699 -5.6420059E5
700 700 1.12590018E6
700 701 -5.6169959E5
701 700 -5.6420059E5
701 701 1.12590018E6
701 702 -5.6169959E5
702 701 -5.6420059E5
702 702 1.12590018E6
702 703 -5.6169959E5
703 702 -5.6420059E5
703 703 1.12590018E6
703 704 -5.6169959E5
704 703 -5.6420059E5
704 704 1.12590018E6
704 705 -5.6169959E5
705 704 -5.6420059E5
705 705 1.12590018E6
705 706 -5.6169959E5
706 705 -5.6420059E5
706 706 1.12590018E6
706 707 -5.6169959E5
707 706 -5.6420059E5
707 707 1.12590018E6
707 708 -5.6169959E5
708 707 -5.6420059E5
708 708 1.12590018E6
708 709 -5.6169959E5
709 708 -5.6420059E5
709 709 1.12590018E6
709 710 -5.6169959E5
710 709 -5.6420059E5
710 710 1.12590018E6
710 711 -5.6169959E5
711 710 -5.6420059E5
711 711 1.12590018E6
711 712 -5.6169959E5
712 711 -5.6420059E5
712 712 1.12590018E6
712 713 -5.6169959E5
713 712 -5.6420059E5
713 713 1.12590018E6
713 714 -5.6169959E5
714 713 -5.6420059E5
714 714 1.12590018E6
714 715 -5.6169959E5
715 714 -5.6420059E5
715 715 1.12590018E6
715 716 -5.6169959E5
716 715 -5.6420059E5
716 716 1.12590018E6
716 717 -5.6169959E5
717 716 -5.6420059E5
717 717 1.12590018E6
717 718 -5.6169959E5
718 717 -5.6420059E5
718 718 1.12590018E6
718 719 -5.6169959E5
719 718 -5.6420059E5
719 719 1.12590018E6
719 720 -5.6169959E5
720 719 -5.6420059E5
720 720 1.12590018E6
720 721 -5.6169959E5
721 720 -5.6420059E5
721 721 1.12590018E6
721 722 -5.6169959E5
722 721 -5.6420059E5
722 722 1.12590018E6
722 723 -5.6169959E5
723 722 -5.6420059E5
723 723 1.12590018E6
723 724 -5.6169959E5
724 723 -5.6420059E5
724 724 1.12590018E6
724 725 -5.6169959E5
725 724 -5.6420059E5
725 725 1.12590018E6
725 726 -5.6169959E5
726 725 -5.6420059E5
726 726 1.12590018E6
726 727 -5.6169959E5
727 726 -5.6420059E5
727 727 1.12590018E6
727 728 -5.6169959E5
728 727 -5.6420059E5
728 728 1.12590018E6
728 729 -5.6169959E5
729 728 -5.6420059E5
729 729 1.12590018E6
729 730 -5.6169959E5
730 729 -5.6420059E5
730 730 1.12590018E6
730 731 -5.6169959E5
731 730 -5.6420059E5
731 731 1.12590018E6
731 732 -5.6169959E5
732 731 -5.6420059E5
732 732 1.12590018E6
732 733 -5.6169959E5
733 732 -5.6420059E5
733 733 1.12590018E6
733 734 -5.6169959E5
734 733 -5.6420059E5
734 734 1.12590018E6
734 735 -5.6169959E5
735 734 -5.6420059E5
735 735 1.12590018E6
735 736 -5.6169959E5
736 735 -5.6420059E5
736 736 1.12590018E6
736 737 -5.6169959E5
737 736 -5.6420059E5
737 737 1.12590018E6
737 738 -5.6169959E5
738 737 -5.6420059E5
738 738 1.12590018E6
738 739 -5.6169959E5
739 738 -5.6420059E5
739 739 1.12590018E6
739 740 -5.6169959E5
740 739 -5.6420059E5
740 740 1.12590018E6
740 741 -5.6169959E5
741 740 -5.6420059E5
741 741 1.12590018E6
741 742 -5.6169959E5
742 741 -5.6420059E5
742 742 1.12590018E6
742 743 -5.6169959E5
743 742 -5.6420059E5
743 743 1.12590018E6
743 744 -5.6169959E5
744 743 -5.6420059E5
744 744 1.12590018E6
744 745 -5.6169959E5
745 744 -5.6420059E5
745 745 1.12590018E6
745 746 -5.6169959E5
746 745 -5.6420059E5
746 746 1.12590018E6
746 747 -5.6169959E5
747 746 -5.6420059E5
747 747 1.12590018E6
747 748 -5.6169959E5
748 747 -5.6420059E5
748 748 1.12590018E6
748 749 -5.6169959E5
749 748 -5.6420059E5
749 749 1.12590018E6
749 750 -5.6169959E5
750 749 -5.6420059E5
750 750 1.12590018E6
750 751 -5.6169959E5
751 750 -5.6420059E5
751 751 1.12590018E6
751 752 -5.6169959E5
752 751 -5.6420059E5
752 752 1.12590018E6
752 753 -5.6169959E5
753 752 -5.6420059E5
753 753 1.12590018E6
753 754 -5.6169959E5
754 753 -5.6420059E5
754 754 1.12590018E6
754 755 -5.6169959E5
755 754 -5.6420059E5
755 755 1.12590018E6
755 756 -5.6169959E5
756 755 -5.6420059E5
756 756 1.12590018E6
756 757 -5.6169959E5
757 756 -5.6420059E5
757 757 1.12590018E6
757 758 -5.6169959E5
758 757 -5.6420059E5
758 758 1.12590018E6
758 759 -5.6169959E5
759 758 -5.6420059E5
759 759 1.12590018E6
759 760 -5.6169959E5
760 759 -5.6420059E5
760 760 1.12590018E6
760 761 -5.6169959E5
761 760 -5.6420059E5
761 761 1.12590018E6
761 762 -5.6169959E5
762 761 -5.6420059E5
762 762 1.12590018E6
762 763 -5.6169959E5
763 762 -5.6420059E5
763 763 1.12590018E6
763 764 -5.6169959E5
764 763 -5.6420059E5
764 764 1.12590018E6
764 765 -5.6169959E5
765 764 -5.6420059E5
765 765 1.12590018E6
765 766 -5.6169959E5
766 765 -5.6420059E5
766 766 1.12590018E6
766 767 -5.6169959E5
767 766 -5.6420059E5
767 767 1.12590018E6
767 768 -5.6169959E5
768 767 -5.6420059E5
768 768 1.12590018E6
768 769 -5.6169959E5
769 768 -5.6420059E5
769 769 1.12590018E6
769 770 -5.6169959E5
770 769 -5.6420059E5
770 770 1.12590018E6
770 771 -5.6169959E5
771 770 -5.6420059E5
771 771 1.12590018E6
771 772 -5.6169959E5
772 771 -5.6420059E5
772 772 1.12590018E6
772 773 -5.6169959E5
773 772 -5.6420059E5
773 773 1.12590018E6
773 774 -5.6169959E5
774 773 -5.6420059E5
774 774 1.12590018E6
774 775 -5.6169959E5
775 774 -5.6420059E5
775 775 1.12590018E6
775 776 -5.6169959E5
776 775 -5.6420059E5
776 776 1.12590018E6
776 777 -5.6169959E5
777 776 -5.6420059E5
777 777 1.12590018E6
777 778 -5.6169959E5
778 777 -5.6420059E5
778 778 1.12590018E6
778 779 -5.6169959E5
779 778 -5.6420059E5
779 779 1.12590018E6
779 780 -5.6169959E5
780 779 -5.6420059E5
780 780 1.12590018E6
780 781 -5.6169959E5
781 780 -5.6420059E5
781 781 1.12590018E6
781 782 -5.6169959E5
782 781 -5.6420059E5
782 782 1.12590018E6
782 783 -5.6169959E5
783 782 -5.6420059E5
783 783 1.12590018E6
783 784 -5.6169959E5
784 783 -5.6420059E5
784 784 1.12590018E6
784 785 -5.6169959E5
785 784 -5.6420059E5
785 785 1.12590018E6
785 786 -5.6169959E5
786 785 -5.6420059E5
786 786 1.12590018E6
786 787 -5.6169959E5
787 786 -5.6420059E5
787 787 1.12590018E6
787 788 -5.6169959E5
788 787 -5.6420059E5
788 788 1.12590018E6
788 789 -5.6169959E5
789 788 -5.6420059E5
789 789 1.12590018E6
789 790 -5.6169959E5
790 789 -5.6420059E5
790 790 1.12590018E6
790 791 -5.6169959E5
791 790 -5.6420059E5
791 791 1.12590018E6
791 792 -5.6169959E5
792 791 -5.6420059E5
792 792 1.12590018E6
792 793 -5.6169959E5
793 792 -5.6420059E5
793 793 1.12590018E6
793 794 -5.6169959E5
794 793 -5.6420059E5
794 794 1.12590018E6
794 795 -5.6169959E5
795 794 -5.6420059E5
795 795 1.12590018E6
795 796 -5.6169959E5
796 795 -5.6420059E5
796 796 1.12590018E6
796 797 -5.6169959E5
797 796 -5.6420059E5
797 797 1.12590018E6
797 798 -5.6169959E5
798 797 -5.6420059E5
798 798 1.12590018E6
798 799 -5.6169959E5
799 798 -5.6420059E5
799 799 1.12590018E6
799 800 -5.6169959E5
800 799 -5.6420059E5
800 800 1.12590018E6
800 801 -5.6169959E5
801 800 -5.6420059E5
801 801 1.12590018E6
801 802 -5.6169959E5
802 801 -5.6420059E5
802 802 1.12590018E6
802 803 -5.6169959E5
803 802 -5.6420059E5
803 803 1.12590018E6
803 804 -5.6169959E5
804 803 -5.6420059E5
804 804 1.12590018E6
804 805 -5.6169959E5
805 804 -5.6420059E5
805 805 1.12590018E6
805 806 -5.6169959E5
806 805 -5.6420059E5
806 806 1.12590018E6
806 807 -5.6169959E5
807 806 -5.6420059E5
807 807 1.12590018E6
807 808 -5.6169959E5
808 807 -5.6420059E5
808 808 1.12590018E6
808 809 -5.6169959E5
809 808 -5.6420059E5
809 809 1.12590018E6
809 810 -5.6169959E5
810 809 -5.6420059E5
810 810 1.12590018E6
810 811 -5.6169959E5
811 810 -5.6420059E5
811 811 1.12590018E6
811 812 -5.6169959E5
812 811 -5.6420059E5
812 812 1.12590018E6
812 813 -5.6169959E5
813 812 -5.6420059E5
813 813 1.12590018E6
813 814 -5.6169959E5
814 813 -5.6420059E5
814 814 1.12590018E6
814 815 -5.6169959E5
815 814 -5.6420059E5
815 815 1.12590018E6
815 816 -5.6169959E5
816 815 -5.6420059E5
816 816 1.12590018E6
816 817 -5.6169959E5
817 816 -5.6420059E5
817 817 1.12590018E6
817 818 -5.6169959E5
818 817 -5.6420059E5
818 818 1.12590018E6
818 819 -5.6169959E5
819 818 -5.6420059E5
819 819 1.12590018E6
819 820 -5.6169959E5
820 819 -5.6420059E5
820 820 1.12590018E6
820 821 -5.6169959E5
821 820 -5.6420059E5
821 821 1.12590018E6
821 822 -5.6169959E5
822 821 -5.6420059E5
822 822 1.12590018E6
822 823 -5.6169959E5
823 822 -5.6420059E5
823 823 1.12590018E6
823 824 -5.6169959E5
824 823 -5.6420059E5
824 824 1.12590018E6
824 825 -5.6169959E5
825 824 -5.6420059E5
825 825 1.12590018E6
825 826 -5.6169959E5
826 825 -5.6420059E5
826 826 1.12590018E6
826 827 -5.6169959E5
827 826 -5.6420059E5
827 827 1.12590018E6
827 828 -5.6169959E5
828 827 -5.6420059E5
828 828 1.12590018E6
828 829 -5.6169959E5
829 828 -5.6420059E5
829 829 1.12590018E6
829 830 -5.6169959E5
830 829 -5.6420059E5
830 830 1.12590018E6
830 831 -5.6169959E5
831 830 -5.6420059E5
831 831 1.12590018E6
831 832 -5.6169959E5
832 831 -5.6420059E5
832 832 1.12590018E6
832 833 -5.6169959E5
833 832 -5.6420059E5
833 833 1.12590018E6
833 834 -5.6169959E5
834 833 -5.6420059E5
834 834 1.12590018E6
834 835 -5.6169959E5
835 834 -5.6420059E5
835 835 1.12590018E6
835 836 -5.6169959E5
836 835 -5.6420059E5
836 836 1.12590018E6
836 837 -5.6169959E5
837 836 -5.6420059E5
837 837 1.12590018E6
837 838 -5.6169959E5
838 837 -5.6420059E5
838 838 1.12590018E6
838 839 -5.6169959E5
839 838 -5.6420059E5
839 839 1.12590018E6
839 840 -5.6169959E5
840 839 -5.6420059E5
840 840 1.12590018E6
840 841 -5.6169959E5
841 840 -5.6420059E5
841 841 1.12590018E6
841 842 -5.6169959E5
842 841 -5.6420059E5
842 842 1.12590018E6
842 843 -5.6169959E5
843 842 -5.6420059E5
843 843 1.12590018E6
843 844 -5.6169959E5
844 843 -5.6420059E5
844 844 1.12590018E6
844 845 -5.6169959E5
845 844 -5.6420059E5
845 845 1.12590018E6
845 846 -5.6169959E5
846 845 -5.6420059E5
846 846 1.12590018E6
846 847 -5.6169959E5
847 846 -5.6420059E5
847 847 1.12590018E6
847 848 -5.6169959E5
848 847 -5.6420059E5
848 848 1.12590018E6
848 849 -5.6169959E5
849 848 -5.6420059E5
849 849 1.12590018E6
849 850 -5.6169959E5
850 849 -5.6420059E5
850 850 1.12590018E6
850 851 -5.6169959E5
851 850 -5.6420059E5
851 851 1.12590018E6
851 852 -5.6169959E5
852 851 -5.6420059E5
852 852 1.12590018E6
852 853 -5.6169959E5
853 852 -5.6420059E5
853 853 1.12590018E6
853 854 -5.6169959E5
854 853 -5.6420059E5
854 854 1.12590018E6
854 855 -5.6169959E5
855 854 -5.6420059E5
855 855 1.12590018E6
855 856 -5.6169959E5
856 855 -5.6420059E5
856 856 1.12590018E6
856 857 -5.6169959E5
857 856 -5.6420059E5
857 857 1.12590018E6
857 858 -5.6169959E5
858 857 -5.6420059E5
858 858 1.12590018E6
858 859 -5.6169959E5
859 858 -5.6420059E5
859 859 1.12590018E6
859 860 -5.6169959E5
860 859 -5.6420059E5
860 860 1.12590018E6
860 861 -5.6169959E5
861 860 -5.6420059E5
861 861 1.12590018E6
861 862 -5.6169959E5
862 861 -5.6420059E5
862 862 1.12590018E6
862 863 -5.6169959E5
863 862 -5.6420059E5
863 863 1.12590018E6
863 864 -5.6169959E5
864 863 -5.6420059E5
864 864 1.12590018E6
864 865 -5.6169959E5
865 864 -5.6420059E5
865 865 1.12590018E6
865 866 -5.6169959E5
866 865 -5.6420059E5
866 866 1.12590018E6
866 867 -5.6169959E5
867 866 -5.6420059E5
867 867 1.12590018E6
867 868 -5.6169959E5
868 867 -5.6420059E5
868 868 1.12590018E6
868 869 -5.6169959E5
869 868 -5.6420059E5
869 869 1.12590018E6
869 870 -5.6169959E5
870 869 -5.6420059E5
870 870 1.12590018E6
870 871 -5.6169959E5
871 870 -5.6420059E5
871 871 1.12590018E6
871 872 -5.6169959E5
872 871 -5.6420059E5
872 872 1.12590018E6
872 873 -5.6169959E5
873 872 -5.6420059E5
873 873 1.12590018E6
873 874 -5.6169959E5
874 873 -5.6420059E5
874 874 1.12590018E6
874 875 -5.6169959E5
875 874 -5.6420059E5
875 875 1.12590018E6
875 876 -5.6169959E5
876 875 -5.6420059E5
876 876 1.12590018E6
876 877 -5.6169959E5
877 876 -5.6420059E5
877 877 1.12590018E6
877 878 -5.6169959E5
878 877 -5.6420059E5
878 878 1.12590018E6
878 879 -5.6169959E5
879 878 -5.6420059E5
879 879 1.12590018E6
879 880 -5.6169959E5
880 879 -5.6420059E5
880 880 1.12590018E6
880 881 -5.6169959E5
881 880 -5.6420059E5
881 881 1.12590018E6
881 882 -5.6169959E5
882 881 -5.6420059E5
882 882 1.12590018E6
882 883 -5.6169959E5
883 882 -5.6420059E5
883 883 1.12590018E6
883 884 -5.6169959E5
884 883 -5.6420059E5
884 884 1.12590018E6
884 885 -5.6169959E5
885 884 -5.6420059E5
885 885 1.12590018E6
885 886 -5.6169959E5
886 885 -5.6420059E5
886 886 1.12590018E6
886 887 -5.6169959E5
887 886 -5.6420059E5
887 887 1.12590018E6
887 888 -5.6169959E5
888 887 -5.6420059E5
888 888 1.12590018E6
888 889 -5.6169959E5
889 888 -5.6420059E5
889 889 1.12590018E6
889 890 -5.6169959E5
890 889 -5.6420059E5
890 890 1.12590018E6
890 891 -5.6169959E5
891 890 -5.6420059E5
891 891 1.12590018E6
891 892 -5.6169959E5
892 891 -5.6420059E5
892 892 1.12590018E6
892 893 -5.6169959E5
893 892 -5.6420059E5
893 893 1.12590018E6
893 894 -5.6169959E5
894 893 -5.6420059E5
894 894 1.12590018E6
894 895 -5.6169959E5
895 894 -5.6420059E5
895 895 1.12590018E6
895 896 -5.6169959E5
896 895 -5.6420059E5
896 896 1.12590018E6
896 897 -5.6169959E5
897 896 -5.6420059E5
897 897 1.12590018E6
897 898 -5.6169959E5
898 897 -5.6420059E5
898 898 1.12590018E6
898 899 -5.6169959E5
899 898 -5.6420059E5
899 899 1.12590018E6
899 900 -5.6169959E5
900 899 -5.6420059E5
900 900 1.12590018E6
900 901 -5.6169959E5
901 900 -5.6420059E5
901 901 1.12590018E6
901 902 -5.6169959E5
902 901 -5.6420059E5
902 902 1.12590018E6
902 903 -5.6169959E5
903 902 -5.6420059E5
903 903 1.12590018E6
903 904 -5.6169959E5
904 903 -5.6420059E5
904 904 1.12590018E6
904 905 -5.6169959E5
905 904 -5.6420059E5
905 905 1.12590018E6
905 906 -5.6169959E5
906 905 -5.6420059E5
906 906 1.12590018E6
906 907 -5.6169959E5
907 906 -5.6420059E5
907 907 1.12590018E6
907 908 -5.6169959E5
908 907 -5.6420059E5
908 908 1.12590018E6
908 909 -5.6169959E5
909 908 -5.6420059E5
909 909 1.12590018E6
909 910 -5.6169959E5
910 909 -5.6420059E5
910 910 1.12590018E6
910 911 -5.6169959E5
911 910 -5.6420059E5
911 911 1.12590018E6
911 912 -5.6169959E5
912 911 -5.6420059E5
912 912 1.12590018E6
912 913 -5.6169959E5
913 912 -5.6420059E5
913 913 1.12590018E6
913 914 -5.6169959E5
914 913 -5.6420059E5
914 914 1.12590018E6
914 915 -5.6169959E5
915 914 -5.6420059E5
915 915 1.12590018E6
915 916 -5.6169959E5
916 915 -5.6420059E5
916 916 1.12590018E6
916 917 -5.6169959E5
917 916 -5.6420059E5
917 917 1.12590018E6
917 918 -5.6169959E5
918 917 -5.6420059E5
918 918 1.12590018E6
918 919 -5.6169959E5
919 918 -5.6420059E5
919 919 1.12590018E6
919 920 -5.6169959E5
920 919 -5.6420059E5
920 920 1.12590018E6
920 921 -5.6169959E5
921 920 -5.6420059E5
921 921 1.12590018E6
921 922 -5.6169959E5
922 921 -5.6420059E5
922 922 1.12590018E6
922 923 -5.6169959E5
923 922 -5.6420059E5
923 923 1.12590018E6
923 924 -5.6169959E5
924 923 -5.6420059E5
924 924 1.12590018E6
924 925 -5.6169959E5
925 924 -5.6420059E5
925 925 1.12590018E6
925 926 -5.6169959E5
926 925 -5.6420059E5
926 926 1.12590018E6
926 927 -5.6169959E5
927 926 -5.6420059E5
927 927 1.12590018E6
927 928 -5.6169959E5
928 927 -5.6420059E5
928 928 1.12590018E6
928 929 -5.6169959E5
929 928 -5.6420059E5
929 929 1.12590018E6
929 930 -5.6169959E5
930 929 -5.6420059E5
930 930 1.12590018E6
930 931 -5.6169959E5
931 930 -5.6420059E5
931 931 1.12590018E6
931 932 -5.6169959E5
932 931 -5.6420059E5
932 932 1.12590018E6
932 933 -5.6169959E5
933 932 -5.6420059E5
933 933 1.12590018E6
933 934 -5.6169959E5
934 933 -5.6420059E5
934 934 1.12590018E6
934 935 -5.6169959E5
935 934 -5.6420059E5
935 935 1.12590018E6
935 936 -5.6169959E5
936 935 -5.6420059E5
936 936 1.12590018E6
936 937 -5.6169959E5
937 936 -5.6420059E5
937 937 1.12590018E6
937 938 -5.6169959E5
938 937 -5.6420059E5
938 938 1.12590018E6
938 939 -5.6169959E5
939 938 -5.6420059E5
939 939 1.12590018E6
939 940 -5.6169959E5
940 939 -5.6420059E5
940 940 1.12590018E6
940 941 -5.6169959E5
941 940 -5.6420059E5
941 941 1.12590018E6
941 942 -5.6169959E5
942 941 -5.6420059E5
942 942 1.12590018E6
942 943 -5.6169959E5
943 942 -5.6420059E5
943 943 1.12590018E6
943 944 -5.6169959E5
944 943 -5.6420059E5
944 944 1.12590018E6
944 945 -5.6169959E5
945 944 -5.6420059E5
945 945 1.12590018E6
945 946 -5.6169959E5
946 945 -5.6420059E5
946 946 1.12590018E6
946 947 -5.6169959E5
947 946 -5.6420059E5
947 947 1.12590018E6
947 948 -5.6169959E5
948 947 -5.6420059E5
948 948 1.12590018E6
948 949 -5.6169959E5
949 948 -5.6420059E5
949 949 1.12590018E6
949 950 -5.6169959E5
950 949 -5.6420059E5
950 950 1.12590018E6
950 951 -5.6169959E5
951 950 -5.6420059E5
951 951 1.12590018E6
951 952 -5.6169959E5
952 951 -5.6420059E5
952 952 1.12590018E6
952 953 -5.6169959E5
953 952 -5.6420059E5
953 953 1.12590018E6
953 954 -5.6169959E5
954 953 -5.6420059E5
954 954 1.12590018E6
954 955 -5.6169959E5
955 954 -5.6420059E5
955 955 1.12590018E6
955 956 -5.6169959E5
956 955 -5.6420059E5
956 956 1.12590018E6
956 957 -5.6169959E5
957 956 -5.6420059E5
957 957 1.12590018E6
957 958 -5.6169959E5
958 957 -5.6420059E5
958 958 1.12590018E6
958 959 -5.6169959E5
959 958 -5.6420059E5
959 959 1.12590018E6
959 960 -5.6169959E5
960 959 -5.6420059E5
960 960 1.12590018E6
960 961 -5.6169959E5
961 960 -5.6420059E5
961 961 1.12590018E6
961 962 -5.6169959E5
962 961 -5.6420059E5
962 962 1.12590018E6
962 963 -5.6169959E5
963 962 -5.6420059E5
963 963 1.12590018E6
963 964 -5.6169959E5
964 963 -5.6420059E5
964 964 1.12590018E6
964 965 -5.6169959E5
965 964 -5.6420059E5
965 965 1.12590018E6
965 966 -5.6169959E5
966 965 -5.6420059E5
966 966 1.12590018E6
966 967 -5.6169959E5
967 966 -5.6420059E5
967 967 1.12590018E6
967 968 -5.6169959E5
968 967 -5.6420059E5
968 968 1.12590018E6
968 969 -5.6169959E5
969 968 -5.6420059E5
969 969 1.12590018E6
969 970 -5.6169959E5
970 969 -5.6420059E5
970 970 1.12590018E6
970 971 -5.6169959E5
971 970 -5.6420059E5
971 971 1.12590018E6
971 972 -5.6169959E5
972 971 -5.6420059E5
972 972 1.12590018E6
972 973 -5.6169959E5
973 972 -5.6420059E5
973 973 1.12590018E6
973 974 -5.6169959E5
974 973 -5.6420059E5
974 974 1.12590018E6
974 975 -5.6169959E5
975 974 -5.6420059E5
975 975 1.12590018E6
975 976 -5.6169959E5
976 975 -5.6420059E5
976 976 1.12590018E6
976 977 -5.6169959E5
977 976 -5.6420059E5
977 977 1.12590018E6
977 978 -5.6169959E5
978 977 -5.6420059E5
978 978 1.12590018E6
978 979 -5.6169959E5
979 978 -5.6420059E5
979 979 1.12590018E6
979 980 -5.6169959E5
980 979 -5.6420059E5
980 980 1.12590018E6
980 981 -5.6169959E5
981 980 -5.6420059E5
981 981 1.12590018E6
981 982 -5.6169959E5
982 981 -5.6420059E5
982 982 1.12590018E6
982 983 -5.6169959E5
983 982 -5.6420059E5
983 983 1.12590018E6
983 984 -5.6169959E5
984 983 -5.6420059E5
984 984 1.12590018E6
984 985 -5.6169959E5
985 984 -5.6420059E5
985 985 1.12590018E6
985 986 -5.6169959E5
986 985 -5.6420059E5
986 986 1.12590018E6
986 987 -5.6169959E5
987 986 -5.6420059E5
987 987 1.12590018E6
987 988 -5.6169959E5
988 987 -5.6420059E5
988 988 1.12590018E6
988 989 -5.6169959E5
989 988 -5.6420059E5
989 989 1.12590018E6
989 990 -5.6169959E5
990 989 -5.6420059E5
990 990 1.12590018E6
990 991 -5.6169959E5
991 990 -5.6420059E5
991 991 1.12590018E6
991 992 -5.6169959E5
992 991 -5.6420059E5
992 992 1.12590018E6
992 993 -5.6169959E5
993 992 -5.6420059E5
993 993 1.12590018E6
993 994 -5.6169959E5
994 993 -5.6420059E5
994 994 1.12590018E6
994 995 -5.6169959E5
995 994 -5.6420059E5
995 995 1.12590018E6
995 996 -5.6169959E5
996 995 -5.6420059E5
996 996 1.12590018E6
996 997 -5.6169959E5
997 996 -5.6420059E5
997 997 1.12590018E6
997 998 -5.6169959E5
998 997 -5.6420059E5
998 998 1.12590018E6
998 999 -5.6169959E5
999 998 -5.6420059E5
999 999 1.12590018E6
999 1000 -5.6169959E5
1000 999 -5.6420059E5
1000 1000 1.12590018E6
1000 1001 -5.6169959E5
1001 1000 -5.6420059E5
1001 1001 1.12590018E6
1001 1002 -5.6169959E5
1002 1001 -5.6420059E5
1002 1002 1.12590018E6
1002 1003 -5.6169959E5
1003 1002 -5.6420059E5
1003 1003 1.12590018E6
1003 1004 -5.6169959E5
1004 1003 -5.6420059E5
1004 1004 1.12590018E6
1004 1005 -5.6169959E5
1005 1004 -5.6420059E5
1005 1005 1.12590018E6
1005 1006 -5.6169959E5
1006 1005 -5.6420059E5
1006 1006 1.12590018E6
1006 1007 -5.6169959E5
1007 1006 -5.6420059E5
1007 1007 1.12590018E6
1007 1008 -5.6169959E5
1008 1007 -5.6420059E5
1008 1008 1.12590018E6
1008 1009 -5.6169959E5
1009 1008 -5.6420059E5
1009 1009 1.12590018E6
1009 1010 -5.6169959E5
1010 1009 -5.6420059E5
1010 1010 1.12590018E6
1010 1011 -5.6169959E5
1011 1010 -5.6420059E5
1011 1011 1.12590018E6
1011 1012 -5.6169959E5
1012 1011 -5.6420059E5
1012 1012 1.12590018E6
1012 1013 -5.6169959E5
1013 1012 -5.6420059E5
1013 1013 1.12590018E6
1013 1014 -5.6169959E5
1014 1013 -5.6420059E5
1014 1014 1.12590018E6
1014 1015 -5.6169959E5
1015 1014 -5.6420059E5
1015 1015 1.12590018E6
1015 1016 -5.6169959E5
1016 1015 -5.6420059E5
1016 1016 1.12590018E6
1016 1017 -5.6169959E5
1017 1016 -5.6420059E5
1017 1017 1.12590018E6
1017 1018 -5.6169959E5
1018 1017 -5.6420059E5
1018 1018 1.12590018E6
1018 1019 -5.6169959E5
1019 1018 -5.6420059E5
1019 1019 1.12590018E6
1019 1020 -5.6169959E5
1020 1019 -5.6420059E5
1020 1020 1.12590018E6
1020 1021 -5.6169959E5
1021 1020 -5.6420059E5
1021 1021 1.12590018E6
1021 1022 -5.6169959E5
1022 1021 -5.6420059E5
1022 1022 1.12590018E6
1022 1023 -5.6169959E5
1023 1022 -5.6420059E5
1023 1023 1.12590018E6
1023 1024 -5.6169959E5
1024 1023 -5.6420059E5
1024 1024 1.12590018E6
1024 1025 -5.6169959E5
1025 1024 -5.6420059E5
1025 1025 1.12590018E6
1025 1026 -5.6169959E5
1026 1025 -5.6420059E5
1026 1026 1.12590018E6
1026 1027 -5.6169959E5
1027 1026 -5.6420059E5
1027 1027 1.12590018E6
1027 1028 -5.6169959E5
1028 1027 -5.6420059E5
1028 1028 1.12590018E6
1028 1029 -5.6169959E5
1029 1028 -5.6420059E5
1029 1029 1.12590018E6
1029 1030 -5.6169959E5
1030 1029 -5.6420059E5
1030 1030 1.12590018E6
1030 1031 -5.6169959E5
1031 1030 -5.6420059E5
1031 1031 1.12590018E6
1031 1032 -5.6169959E5
1032 1031 -5.6420059E5
1032 1032 1.12590018E6
1032 1033 -5.6169959E5
1033 1032 -5.6420059E5
1033 1033 1.12590018E6
1033 1034 -5.6169959E5
1034 1033 -5.6420059E5
1034 1034 1.12590018E6
1034 1035 -5.6169959E5
1035 1034 -5.6420059E5
1035 1035 1.12590018E6
1035 1036 -5.6169959E5
1036 1035 -5.6420059E5
1036 1036 1.12590018E6
1036 1037 -5.6169959E5
1037 1036 -5.6420059E5
1037 1037 1.12590018E6
1037 1038 -5.6169959E5
1038 1037 -5.6420059E5
1038 1038 1.12590018E6
1038 1039 -5.6169959E5
1039 1038 -5.6420059E5
1039 1039 1.12590018E6
1039 1040 -5.6169959E5
1040 1039 -5.6420059E5
1040 1040 1.12590018E6
1040 1041 -5.6169959E5
1041 1040 -5.6420059E5
1041 1041 1.12590018E6
1041 1042 -5.6169959E5
1042 1041 -5.6420059E5
1042 1042 1.12590018E6
1042 1043 -5.6169959E5
1043 1042 -5.6420059E5
1043 1043 1.12590018E6
1043 1044 -5.6169959E5
1044 1043 -5.6420059E5
1044 1044 1.12590018E6
1044 1045 -5.6169959E5
1045 1044 -5.6420059E5
1045 1045 1.12590018E6
1045 1046 -5.6169959E5
1046 1045 -5.6420059E5
1046 1046 1.12590018E6
1046 1047 -5.6169959E5
1047 1046 -5.6420059E5
1047 1047 1.12590018E6
1047 1048 -5.6169959E5
1048 1047 -5.6420059E5
1048 1048 1.12590018E6
1048 1049 -5.6169959E5
1049 1048 -5.6420059E5
1049 1049 1.12590018E6
1049 1050 -5.6169959E5
1050 1049 -5.6420059E5
1050 1050 1.12590018E6
1050 1051 -5.6169959E5
1051 1050 -5.6420059E5
1051 1051 1.12590018E6
1051 1052 -5.6169959E5
1052 1051 -5.6420059E5
1052 1052 1.12590018E6
1052 1053 -5.6169959E5
1053 1052 -5.6420059E5
1053 1053 1.12590018E6
1053 1054 -5.6169959E5
1054 1053 -5.6420059E5
1054 1054 1.12590018E6
1054 1055 -5.6169959E5
1055 1054 -5.6420059E5
1055 1055 1.12590018E6
1055 1056 -5.6169959E5
1056 1055 -5.6420059E5
1056 1056 1.12590018E6
1056 1057 -5.6169959E5
1057 1056 -5.6420059E5
1057 1057 1.12590018E6
1057 1058 -5.6169959E5
1058 1057 -5.6420059E5
1058 1058 1.12590018E6
1058 1059 -5.6169959E5
1059 1058 -5.6420059E5
1059 1059 1.12590018E6
1059 1060 -5.6169959E5
1060 1059 -5.6420059E5
1060 1060 1.12590018E6
1060 1061 -5.6169959E5
1061 1060 -5.6420059E5
1061 1061 1.12590018E6
1061 1062 -5.6169959E5
1062 1061 -5.6420059E5
1062 1062 1.12590018E6
1062 1063 -5.6169959E5
1063 1062 -5.6420059E5
1063 1063 1.12590018E6
1063 1064 -5.6169959E5
1064 1063 -5.6420059E5
1064 1064 1.12590018E6
1064 1065 -5.6169959E5
1065 1064 -5.6420059E5
1065 1065 1.12590018E6
1065 1066 -5.6169959E5
1066 1065 -5.6420059E5
1066 1066 1.12590018E6
1066 1067 -5.6169959E5
1067 1066 -5.6420059E5
1067 1067 1.12590018E6
1067 1068 -5.6169959E5
1068 1067 -5.6420059E5
1068 1068 1.12590018E6
1068 1069 -5.6169959E5
1069 1068 -5.6420059E5
1069 1069 1.12590018E6
1069 1070 -5.6169959E5
1070 1069 -5.6420059E5
1070 1070 1.12590018E6
1070 1071 -5.6169959E5
1071 1070 -5.6420059E5
1071 1071 1.12590018E6
1071 1072 -5.6169959E5
1072 1071 -5.6420059E5
1072 1072 1.12590018E6
1072 1073 -5.6169959E5
1073 1072 -5.6420059E5
1073 1073 1.12590018E6
1073 1074 -5.6169959E5
1074 1073 -5.6420059E5
1074 1074 1.12590018E6
1074 1075 -5.6169959E5
1075 1074 -5.6420059E5
1075 1075 1.12590018E6
1075 1076 -5.6169959E5
1076 1075 -5.6420059E5
1076 1076 1.12590018E6
1076 1077 -5.6169959E5
1077 1076 -5.6420059E5
1077 1077 1.12590018E6
1077 1078 -5.6169959E5
1078 1077 -5.6420059E5
1078 1078 1.12590018E6
1078 1079 -5.6169959E5
1079 1078 -5.6420059E5
1079 1079 1.12590018E6
1079 1080 -5.6169959E5
1080 1079 -5.6420059E5
1080 1080 1.12590018E6
1080 1081 -5.6169959E5
1081 1080 -5.6420059E5
1081 1081 1.12590018E6
1081 1082 -5.6169959E5
1082 1081 -5.6420059E5
1082 1082 1.12590018E6
1082 1083 -5.6169959E5
1083 1082 -5.6420059E5
1083 1083 1.12590018E6
1083 1084 -5.6169959E5
1084 1083 -5.6420059E5
1084 1084 1.12590018E6
1084 1085 -5.6169959E5
1085 1084 -5.6420059E5
1085 1085 1.12590018E6
1085 1086 -5.6169959E5
1086 1085 -5.6420059E5
1086 1086 1.12590018E6
1086 1087 -5.6169959E5
1087 1086 -5.6420059E5
1087 1087 1.12590018E6
1087 1088 -5.6169959E5
1088 1087 -5.6420059E5
1088 1088 1.12590018E6
1088 1089 -5.6169959E5
1089 1088 -5.6420059E5
1089 1089 1.12590018E6
1089 1090 -5.6169959E5
1090 1089 -5.6420059E5
1090 1090 1.12590018E6
1090 1091 -5.6169959E5
1091 1090 -5.6420059E5
1091 1091 1.12590018E6
1091 1092 -5.6169959E5
1092 1091 -5.6420059E5
1092 1092 1.12590018E6
1092 1093 -5.6169959E5
1093 1092 -5.6420059E5
1093 1093 1.12590018E6
1093 1094 -5.6169959E5
1094 1093 -5.6420059E5
1094 1094 1.12590018E6
1094 1095 -5.6169959E5
1095 1094 -5.6420059E5
1095 1095 1.12590018E6
1095 1096 -5.6169959E5
1096 1095 -5.6420059E5
1096 1096 1.12590018E6
1096 1097 -5.6169959E5
1097 1096 -5.6420059E5
1097 1097 1.12590018E6
1097 1098 -5.6169959E5
1098 1097 -5.6420059E5
1098 1098 1.12590018E6
1098 1099 -5.6169959E5
1099 1098 -5.6420059E5
1099 1099 1.12590018E6
1099 1100 -5.6169959E5
1100 1099 -5.6420059E5
1100 1100 1.12590018E6
1100 1101 -5.6169959E5
1101 1100 -5.6420059E5
1101 1101 1.12590018E6
1101 1102 -5.6169959E5
1102 1101 -5.6420059E5
1102 1102 1.12590018E6
1102 1103 -5.6169959E5
1103 1102 -5.6420059E5
1103 1103 1.12590018E6
1103 1104 -5.6169959E5
1104 1103 -5.6420059E5
1104 1104 1.12590018E6
1104 1105 -5.6169959E5
1105 1104 -5.6420059E5
1105 1105 1.12590018E6
1105 1106 -5.6169959E5
1106 1105 -5.6420059E5
1106 1106 1.12590018E6
1106 1107 -5.6169959E5
1107 1106 -5.6420059E5
1107 1107 1.12590018E6
1107 1108 -5.6169959E5
1108 1107 -5.6420059E5
1108 1108 1.12590018E6
1108 1109 -5.6169959E5
1109 1108 -5.6420059E5
1109 1109 1.12590018E6
1109 1110 -5.6169959E5
1110 1109 -5.6420059E5
1110 1110 1.12590018E6
1110 1111 -5.6169959E5
1111 1110 -5.6420059E5
1111 1111 1.12590018E6
1111 1112 -5.6169959E5
1112 1111 -5.6420059E5
1112 1112 1.12590018E6
1112 1113 -5.6169959E5
1113 1112 -5.6420059E5
1113 1113 1.12590018E6
1113 1114 -5.6169959E5
1114 1113 -5.6420059E5
1114 1114 1.12590018E6
1114 1115 -5.6169959E5
1115 1114 -5.6420059E5
1115 1115 1.12590018E6
1115 1116 -5.6169959E5
1116 1115 -5.6420059E5
1116 1116 1.12590018E6
1116 1117 -5.6169959E5
1117 1116 -5.6420059E5
1117 1117 1.12590018E6
1117 1118 -5.6169959E5
1118 1117 -5.6420059E5
1118 1118 1.12590018E6
1118 1119 -5.6169959E5
1119 1118 -5.6420059E5
1119 1119 1.12590018E6
1119 1120 -5.6169959E5
1120 1119 -5.6420059E5
1120 1120 1.12590018E6
1120 1121 -5.6169959E5
1121 1120 -5.6420059E5
1121 1121 1.12590018E6
1121 1122 -5.6169959E5
1122 1121 -5.6420059E5
1122 1122 1.12590018E6
1122 1123 -5.6169959E5
1123 1122 -5.6420059E5
1123 1123 1.12590018E6
1123 1124 -5.6169959E5
1124 1123 -5.6420059E5
1124 1124 1.12590018E6
1124 1125 -5.6169959E5
1125 1124 -5.6420059E5
1125 1125 1.12590018E6
1125 1126 -5.6169959E5
1126 1125 -5.6420059E5
1126 1126 1.12590018E6
1126 1127 -5.6169959E5
1127 1126 -5.6420059E5
1127 1127 1.12590018E6
1127 1128 -5.6169959E5
1128 1127 -5.6420059E5
1128 1128 1.12590018E6
1128 1129 -5.6169959E5
1129 1128 -5.6420059E5
1129 1129 1.12590018E6
1129 1130 -5.6169959E5
1130 1129 -5.6420059E5
1130 1130 1.12590018E6
1130 1131 -5.6169959E5
1131 1130 -5.6420059E5
1131 1131 1.12590018E6
1131 1132 -5.6169959E5
1132 1131 -5.6420059E5
1132 1132 1.12590018E6
1132 1133 -5.6169959E5
1133 1132 -5.6420059E5
1133 1133 1.12590018E6
1133 1134 -5.6169959E5
1134 1133 -5.6420059E5
1134 1134 1.12590018E6
1134 1135 -5.6169959E5
1135 1134 -5.6420059E5
1135 1135 1.12590018E6
1135 1136 -5.6169959E5
1136 1135 -5.6420059E5
1136 1136 1.12590018E6
1136 1137 -5.6169959E5
1137 1136 -5.6420059E5
1137 1137 1.12590018E6
1137 1138 -5.6169959E5
1138 1137 -5.6420059E5
1138 1138 1.12590018E6
1138 1139 -5.6169959E5
1139 1138 -5.6420059E5
1139 1139 1.12590018E6
1139 1140 -5.6169959E5
1140 1139 -5.6420059E5
1140 1140 1.12590018E6
1140 1141 -5.6169959E5
1141 1140 -5.6420059E5
1141 1141 1.12590018E6
1141 1142 -5.6169959E5
1142 1141 -5.6420059E5
1142 1142 1.12590018E6
1142 1143 -5.6169959E5
1143 1142 -5.6420059E5
1143 1143 1.12590018E6
1143 1144 -5.6169959E5
1144 1143 -5.6420059E5
1144 1144 1.12590018E6
1144 1145 -5.6169959E5
1145 1144 -5.6420059E5
1145 1145 1.12590018E6
1145 1146 -5.6169959E5
1146 1145 -5.6420059E5
1146 1146 1.12590018E6
1146 1147 -5.6169959E5
1147 1146 -5.6420059E5
1147 1147 1.12590018E6
1147 1148 -5.6169959E5
1148 1147 -5.6420059E5
1148 1148 1.12590018E6
1148 1149 -5.6169959E5
1149 1148 -5.6420059E5
1149 1149 1.12590018E6
1149 1150 -5.6169959E5
1150 1149 -5.6420059E5
1150 1150 1.12590018E6
1150 1151 -5.6169959E5
1151 1150 -5.6420059E5
1151 1151 1.12590018E6
1151 1152 -5.6169959E5
1152 1151 -5.6420059E5
1152 1152 1.12590018E6
1152 1153 -5.6169959E5
1153 1152 -5.6420059E5
1153 1153 1.12590018E6
1153 1154 -5.6169959E5
1154 1153 -5.6420059E5
1154 1154 1.12590018E6
1154 1155 -5.6169959E5
1155 1154 -5.6420059E5
1155 1155 1.12590018E6
1155 1156 -5.6169959E5
1156 1155 -5.6420059E5
1156 1156 1.12590018E6
1156 1157 -5.6169959E5
1157 1156 -5.6420059E5
1157 1157 1.12590018E6
1157 1158 -5.6169959E5
1158 1157 -5.6420059E5
1158 1158 1.12590018E6
1158 1159 -5.6169959E5
1159 1158 -5.6420059E5
1159 1159 1.12590018E6
1159 1160 -5.6169959E5
1160 1159 -5.6420059E5
1160 1160 1.12590018E6
1160 1161 -5.6169959E5
1161 1160 -5.6420059E5
1161 1161 1.12590018E6
1161 1162 -5.6169959E5
1162 1161 -5.6420059E5
1162 1162 1.12590018E6
1162 1163 -5.6169959E5
1163 1162 -5.6420059E5
1163 1163 1.12590018E6
1163 1164 -5.6169959E5
1164 1163 -5.6420059E5
1164 1164 1.12590018E6
1164 1165 -5.6169959E5
1165 1164 -5.6420059E5
1165 1165 1.12590018E6
1165 1166 -5.6169959E5
1166 1165 -5.6420059E5
1166 1166 1.12590018E6
1166 1167 -5.6169959E5
1167 1166 -5.6420059E5
1167 1167 1.12590018E6
1167 1168 -5.6169959E5
1168 1167 -5.6420059E5
1168 1168 1.12590018E6
1168 1169 -5.6169959E5
1169 1168 -5.6420059E5
1169 1169 1.12590018E6
1169 1170 -5.6169959E5
1170 1169 -5.6420059E5
1170 1170 1.12590018E6
1170 1171 -5.6169959E5
1171 1170 -5.6420059E5
1171 1171 1.12590018E6
1171 1172 -5.6169959E5
1172 1171 -5.6420059E5
1172 1172 1.12590018E6
1172 1173 -5.6169959E5
1173 1172 -5.6420059E5
1173 1173 1.12590018E6
1173 1174 -5.6169959E5
1174 1173 -5.6420059E5
1174 1174 1.12590018E6
1174 1175 -5.6169959E5
1175 1174 -5.6420059E5
1175 1175 1.12590018E6
1175 1176 -5.6169959E5
1176 1175 -5.6420059E5
1176 1176 1.12590018E6
1176 1177 -5.6169959E5
1177 1176 -5.6420059E5
1177 1177 1.12590018E6
1177 1178 -5.6169959E5
1178 1177 -5.6420059E5
1178 1178 1.12590018E6
1178 1179 -5.6169959E5
1179 1178 -5.6420059E5
1179 1179 1.12590018E6
1179 1180 -5.6169959E5
1180 1179 -5.6420059E5
1180 1180 1.12590018E6
1180 1181 -5.6169959E5
1181 1180 -5.6420059E5
1181 1181 1.12590018E6
1181 1182 -5.6169959E5
1182 1181 -5.6420059E5
1182 1182 1.12590018E6
1182 1183 -5.6169959E5
1183 1182 -5.6420059E5
1183 1183 1.12590018E6
1183 1184 -5.6169959E5
1184 1183 -5.6420059E5
1184 1184 1.12590018E6
1184 1185 -5.6169959E5
1185 1184 -5.6420059E5
1185 1185 1.12590018E6
1185 1186 -5.6169959E5
1186 1185 -5.6420059E5
1186 1186 1.12590018E6
1186 1187 -5.6169959E5
1187 1186 -5.6420059E5
1187 1187 1.12590018E6
1187 1188 -5.6169959E5
1188 1187 -5.6420059E5
1188 1188 1.12590018E6
1188 1189 -5.6169959E5
1189 1188 -5.6420059E5
1189 1189 1.12590018E6
1189 1190 -5.6169959E5
1190 1189 -5.6420059E5
1190 1190 1.12590018E6
1190 1191 -5.6169959E5
1191 1190 -5.6420059E5
1191 1191 1.12590018E6
1191 1192 -5.6169959E5
1192 1191 -5.6420059E5
1192 1192 1.12590018E6
1192 1193 -5.6169959E5
1193 1192 -5.6420059E5
1193 1193 1.12590018E6
1193 1194 -5.6169959E5
1194 1193 -5.6420059E5
1194 1194 1.12590018E6
1194 1195 -5.6169959E5
1195 1194 -5.6420059E5
1195 1195 1.12590018E6
1195 1196 -5.6169959E5
1196 1195 -5.6420059E5
1196 1196 1.12590018E6
1196 1197 -5.6169959E5
1197 1196 -5.6420059E5
1197 1197 1.12590018E6
1197 1198 -5.6169959E5
1198 1197 -5.6420059E5
1198 1198 1.12590018E6
1198 1199 -5.6169959E5
1199 1198 -5.6420059E5
1199 1199 1.12590018E6
1199 1200 -5.6169959E5
1200 1199 -5.6420059E5
1200 1200 1.12590018E6
1200 1201 -5.6169959E5
1201 1200 -5.6420059E5
1201 1201 1.12590018E6
1201 1202 -5.6169959E5
1202 1201 -5.6420059E5
1202 1202 1.12590018E6
1202 1203 -5.6169959E5
1203 1202 -5.6420059E5
1203 1203 1.12590018E6
1203 1204 -5.6169959E5
1204 1203 -5.6420059E5
1204 1204 1.12590018E6
1204 1205 -5.6169959E5
1205 1204 -5.6420059E5
1205 1205 1.12590018E6
1205 1206 -5.6169959E5
1206 1205 -5.6420059E5
1206 1206 1.12590018E6
1206 1207 -5.6169959E5
1207 1206 -5.6420059E5
1207 1207 1.12590018E6
1207 1208 -5.6169959E5
1208 1207 -5.6420059E5
1208 1208 1.12590018E6
1208 1209 -5.6169959E5
1209 1208 -5.6420059E5
1209 1209 1.12590018E6
1209 1210 -5.6169959E5
1210 1209 -5.6420059E5
1210 1210 1.12590018E6
1210 1211 -5.6169959E5
1211 1210 -5.6420059E5
1211 1211 1.12590018E6
1211 1212 -5.6169959E5
1212 1211 -5.6420059E5
1212 1212 1.12590018E6
1212 1213 -5.6169959E5
1213 1212 -5.6420059E5
1213 1213 1.12590018E6
1213 1214 -5.6169959E5
1214 1213 -5.6420059E5
1214 1214 1.12590018E6
1214 1215 -5.6169959E5
1215 1214 -5.6420059E5
1215 1215 1.12590018E6
1215 1216 -5.6169959E5
1216 1215 -5.6420059E5
1216 1216 1.12590018E6
1216 1217 -5.6169959E5
1217 1216 -5.6420059E5
1217 1217 1.12590018E6
1217 1218 -5.6169959E5
1218 1217 -5.6420059E5
1218 1218 1.12590018E6
1218 1219 -5.6169959E5
1219 1218 -5.6420059E5
1219 1219 1.12590018E6
1219 1220 -5.6169959E5
1220 1219 -5.6420059E5
1220 1220 1.12590018E6
1220 1221 -5.6169959E5
1221 1220 -5.6420059E5
1221 1221 1.12590018E6
1221 1222 -5.6169959E5
1222 1221 -5.6420059E5
1222 1222 1.12590018E6
1222 1223 -5.6169959E5
1223 1222 -5.6420059E5
1223 1223 1.12590018E6
1223 1224 -5.6169959E5
1224 1223 -5.6420059E5
1224 1224 1.12590018E6
1224 1225 -5.6169959E5
1225 1224 -5.6420059E5
1225 1225 1.12590018E6
1225 1226 -5.6169959E5
1226 1225 -5.6420059E5
1226 1226 1.12590018E6
1226 1227 -5.6169959E5
1227 1226 -5.6420059E5
1227 1227 1.12590018E6
1227 1228 -5.6169959E5
1228 1227 -5.6420059E5
1228 1228 1.12590018E6
1228 1229 -5.6169959E5
1229 1228 -5.6420059E5
1229 1229 1.12590018E6
1229 1230 -5.6169959E5
1230 1229 -5.6420059E5
1230 1230 1.12590018E6
1230 1231 -5.6169959E5
1231 1230 -5.6420059E5
1231 1231 1.12590018E6
1231 1232 -5.6169959E5
1232 1231 -5.6420059E5
1232 1232 1.12590018E6
1232 1233 -5.6169959E5
1233 1232 -5.6420059E5
1233 1233 1.12590018E6
1233 1234 -5.6169959E5
1234 1233 -5.6420059E5
1234 1234 1.12590018E6
1234 1235 -5.6169959E5
1235 1234 -5.6420059E5
1235 1235 1.12590018E6
1235 1236 -5.6169959E5
1236 1235 -5.6420059E5
1236 1236 1.12590018E6
1236 1237 -5.6169959E5
1237 1236 -5.6420059E5
1237 1237 1.12590018E6
1237 1238 -5.6169959E5
1238 1237 -5.6420059E5
1238 1238 1.12590018E6
1238 1239 -5.6169959E5
1239 1238 -5.6420059E5
1239 1239 1.12590018E6
1239 1240 -5.6169959E5
1240 1239 -5.6420059E5
1240 1240 1.12590018E6
1240 1241 -5.6169959E5
1241 1240 -5.6420059E5
1241 1241 1.12590018E6
1241 1242 -5.6169959E5
1242 1241 -5.6420059E5
1242 1242 1.12590018E6
1242 1243 -5.6169959E5
1243 1242 -5.6420059E5
1243 1243 1.12590018E6
1243 1244 -5.6169959E5
1244 1243 -5.6420059E5
1244 1244 1.12590018E6
1244 1245 -5.6169959E5
1245 1244 -5.6420059E5
1245 1245 1.12590018E6
1245 1246 -5.6169959E5
1246 1245 -5.6420059E5
1246 1246 1.12590018E6
1246 1247 -5.6169959E5
1247 1246 -5.6420059E5
1247 1247 1.12590018E6
1247 1248 -5.6169959E5
1248 1247 -5.6420059E5
1248 1248 1.12590018E6
1248 1249 -5.6169959E5
1249 1248 -5.6420059E5
1249 1249 1.12590018E6
1249 1250 -5.6169959E5
1250 1249 -5.6420059E5
1250 1250 1.12590018E6
1250 1251 -5.6169959E5
1251 1250 -5.6420059E5
1251 1251 1.12590018E6
1251 1252 -5.6169959E5
1252 1251 -5.6420059E5
1252 1252 1.12590018E6
1252 1253 -5.6169959E5
1253 1252 -5.6420059E5
1253 1253 1.12590018E6
1253 1254 -5.6169959E5
1254 1253 -5.6420059E5
1254 1254 1.12590018E6
1254 1255 -5.6169959E5
1255 1254 -5.6420059E5
1255 1255 1.12590018E6
1255 1256 -5.6169959E5
1256 1255 -5.6420059E5
1256 1256 1.12590018E6
1256 1257 -5.6169959E5
1257 1256 -5.6420059E5
1257 1257 1.12590018E6
1257 1258 -5.6169959E5
1258 1257 -5.6420059E5
1258 1258 1.12590018E6
1258 1259 -5.6169959E5
1259 1258 -5.6420059E5
1259 1259 1.12590018E6
1259 1260 -5.6169959E5
1260 1259 -5.6420059E5
1260 1260 1.12590018E6
1260 1261 -5.6169959E5
1261 1260 -5.6420059E5
1261 1261 1.12590018E6
1261 1262 -5.6169959E5
1262 1261 -5.6420059E5
1262 1262 1.12590018E6
1262 1263 -5.6169959E5
1263 1262 -5.6420059E5
1263 1263 1.12590018E6
1263 1264 -5.6169959E5
1264 1263 -5.6420059E5
1264 1264 1.12590018E6
1264 1265 -5.6169959E5
1265 1264 -5.6420059E5
1265 1265 1.12590018E6
1265 1266 -5.6169959E5
1266 1265 -5.6420059E5
1266 1266 1.12590018E6
1266 1267 -5.6169959E5
1267 1266 -5.6420059E5
1267 1267 1.12590018E6
1267 1268 -5.6169959E5
1268 1267 -5.6420059E5
1268 1268 1.12590018E6
1268 1269 -5.6169959E5
1269 1268 -5.6420059E5
1269 1269 1.12590018E6
1269 1270 -5.6169959E5
1270 1269 -5.6420059E5
1270 1270 1.12590018E6
1270 1271 -5.6169959E5
1271 1270 -5.6420059E5
1271 1271 1.12590018E6
1271 1272 -5.6169959E5
1272 1271 -5.6420059E5
1272 1272 1.12590018E6
1272 1273 -5.6169959E5
1273 1272 -5.6420059E5
1273 1273 1.12590018E6
1273 1274 -5.6169959E5
1274 1273 -5.6420059E5
1274 1274 1.12590018E6
1274 1275 -5.6169959E5
1275 1274 -5.6420059E5
1275 1275 1.12590018E6
1275 1276 -5.6169959E5
1276 1275 -5.6420059E5
1276 1276 1.12590018E6
1276 1277 -5.6169959E5
1277 1276 -5.6420059E5
1277 1277 1.12590018E6
1277 1278 -5.6169959E5
1278 1277 -5.6420059E5
1278 1278 1.12590018E6
1278 1279 -5.6169959E5
1279 1278 -5.6420059E5
1279 1279 1.12590018E6
1279 1280 -5.6169959E5
1280 1279 -5.6420059E5
1280 1280 1.12590018E6
1280 1281 -5.6169959E5
1281 1280 -5.6420059E5
1281 1281 1.12590018E6
1281 1282 -5.6169959E5
1282 1281 -5.6420059E5
1282 1282 1.12590018E6
1282 1283 -5.6169959E5
1283 1282 -5.6420059E5
1283 1283 1.12590018E6
1283 1284 -5.6169959E5
1284 1283 -5.6420059E5
1284 1284 1.12590018E6
1284 1285 -5.6169959E5
1285 1284 -5.6420059E5
1285 1285 1.12590018E6
1285 1286 -5.6169959E5
1286 1285 -5.6420059E5
1286 1286 1.12590018E6
1286 1287 -5.6169959E5
1287 1286 -5.6420059E5
1287 1287 1.12590018E6
1287 1288 -5.6169959E5
1288 1287 -5.6420059E5
1288 1288 1.12590018E6
1288 1289 -5.6169959E5
1289 1288 -5.6420059E5
1289 1289 1.12590018E6
1289 1290 -5.6169959E5
1290 1289 -5.6420059E5
1290 1290 1.12590018E6
1290 1291 -5.6169959E5
1291 1290 -5.6420059E5
1291 1291 1.12590018E6
1291 1292 -5.6169959E5
1292 1291 -5.6420059E5
1292 1292 1.12590018E6
1292 1293 -5.6169959E5
1293 1292 -5.6420059E5
1293 1293 1.12590018E6
1293 1294 -5.6169959E5
1294 1293 -5.6420059E5
1294 1294 1.12590018E6
1294 1295 -5.6169959E5
1295 1294 -5.6420059E5
1295 1295 1.12590018E6
1295 1296 -5.6169959E5
1296 1295 -5.6420059E5
1296 1296 1.12590018E6
1296 1297 -5.6169959E5
1297 1296 -5.6420059E5
1297 1297 1.12590018E6
1297 1298 -5.6169959E5
1298 1297 -5.6420059E5
1298 1298 1.12590018E6
1298 1299 -5.6169959E5
1299 1298 -5.6420059E5
1299 1299 1.12590018E6
1299 1300 -5.6169959E5
1300 1299 -5.6420059E5
1300 1300 1.12590018E6
1300 1301 -5.6169959E5
1301 1300 -5.6420059E5
1301 1301 1.12590018E6
1301 1302 -5.6169959E5
1302 1301 -5.6420059E5
1302 1302 1.12590018E6
1302 1303 -5.6169959E5
1303 1302 -5.6420059E5
1303 1303 1.12590018E6
1303 1304 -5.6169959E5
1304 1303 -5.6420059E5
1304 1304 1.12590018E6
1304 1305 -5.6169959E5
1305 1304 -5.6420059E5
1305 1305 1.12590018E6
1305 1306 -5.6169959E5
1306 1305 -5.6420059E5
1306 1306 1.12590018E6
1306 1307 -5.6169959E5
1307 1306 -5.6420059E5
1307 1307 1.12590018E6
1307 1308 -5.6169959E5
1308 1307 -5.6420059E5
1308 1308 1.12590018E6
1308 1309 -5.6169959E5
1309 1308 -5.6420059E5
1309 1309 1.12590018E6
1309 1310 -5.6169959E5
1310 1309 -5.6420059E5
1310 1310 1.12590018E6
1310 1311 -5.6169959E5
1311 1310 -5.6420059E5
1311 1311 1.12590018E6
1311 1312 -5.6169959E5
1312 1311 -5.6420059E5
1312 1312 1.12590018E6
1312 1313 -5.6169959E5
1313 1312 -5.6420059E5
1313 1313 1.12590018E6
1313 1314 -5.6169959E5
1314 1313 -5.6420059E5
1314 1314 1.12590018E6
1314 1315 -5.6169959E5
1315 1314 -5.6420059E5
1315 1315 1.12590018E6
1315 1316 -5.6169959E5
1316 1315 -5.6420059E5
1316 1316 1.12590018E6
1316 1317 -5.6169959E5
1317 1316 -5.6420059E5
1317 1317 1.12590018E6
1317 1318 -5.6169959E5
1318 1317 -5.6420059E5
1318 1318 1.12590018E6
1318 1319 -5.6169959E5
1319 1318 -5.6420059E5
1319 1319 1.12590018E6
1319 1320 -5.6169959E5
1320 1319 -5.6420059E5
1320 1320 1.12590018E6
1320 1321 -5.6169959E5
1321 1320 -5.6420059E5
1321 1321 1.12590018E6
1321 1322 -5.6169959E5
1322 1321 -5.6420059E5
1322 1322 1.12590018E6
1322 1323 -5.6169959E5
1323 1322 -5.6420059E5
1323 1323 1.12590018E6
1323 1324 -5.6169959E5
1324 1323 -5.6420059E5
1324 1324 1.12590018E6
1324 1325 -5.6169959E5
1325 1324 -5.6420059E5
1325 1325 1.12590018E6
1325 1326 -5.6169959E5
1326 1325 -5.6420059E5
1326 1326 1.12590018E6
1326 1327 -5.6169959E5
1327 1326 -5.6420059E5
1327 1327 1.12590018E6
1327 1328 -5.6169959E5
1328 1327 -5.6420059E5
1328 1328 1.12590018E6
1328 1329 -5.6169959E5
1329 1328 -5.6420059E5
1329 1329 1.12590018E6
1329 1330 -5.6169959E5
1330 1329 -5.6420059E5
1330 1330 1.12590018E6
1330 1331 -5.6169959E5
1331 1330 -5.6420059E5
1331 1331 1.12590018E6
1331 1332 -5.6169959E5
1332 1331 -5.6420059E5
1332 1332 1.12590018E6
1332 1333 -5.6169959E5
1333 1332 -5.6420059E5
1333 1333 1.12590018E6
1333 1334 -5.6169959E5
1334 1333 -5.6420059E5
1334 1334 1.12590018E6
1334 1335 -5.6169959E5
1335 1334 -5.6420059E5
1335 1335 1.12590018E6
1335 1336 -5.6169959E5
1336 1335 -5.6420059E5
1336 1336 1.12590018E6
1336 1337 -5.6169959E5
1337 1336 -5.6420059E5
1337 1337 1.12590018E6
1337 1338 -5.6169959E5
1338 1337 -5.6420059E5
1338 1338 1.12590018E6
1338 1339 -5.6169959E5
1339 1338 -5.6420059E5
1339 1339 1.12590018E6
1339 1340 -5.6169959E5
1340 1339 -5.6420059E5
1340 1340 1.12590018E6
1340 1341 -5.6169959E5
1341 1340 -5.6420059E5
1341 1341 1.12590018E6
1341 1342 -5.6169959E5
1342 1341 -5.6420059E5
1342 1342 1.12590018E6
1342 1343 -5.6169959E5
1343 1342 -5.6420059E5
1343 1343 1.12590018E6
1343 1344 -5.6169959E5
1344 1343 -5.6420059E5
1344 1344 1.12590018E6
1344 1345 -5.6169959E5
1345 1344 -5.6420059E5
1345 1345 1.12590018E6
1345 1346 -5.6169959E5
1346 1345 -5.6420059E5
1346 1346 1.12590018E6
1346 1347 -5.6169959E5
1347 1346 -5.6420059E5
1347 1347 1.12590018E6
1347 1348 -5.6169959E5
1348 1347 -5.6420059E5
1348 1348 1.12590018E6
1348 1349 -5.6169959E5
1349 1348 -5.6420059E5
1349 1349 1.12590018E6
1349 1350 -5.6169959E5
1350 1349 -5.6420059E5
1350 1350 1.12590018E6
1350 1351 -5.6169959E5
1351 1350 -5.6420059E5
1351 1351 1.12590018E6
1351 1352 -5.6169959E5
1352 1351 -5.6420059E5
1352 1352 1.12590018E6
1352 1353 -5.6169959E5
1353 1352 -5.6420059E5
1353 1353 1.12590018E6
1353 1354 -5.6169959E5
1354 1353 -5.6420059E5
1354 1354 1.12590018E6
1354 1355 -5.6169959E5
1355 1354 -5.6420059E5
1355 1355 1.12590018E6
1355 1356 -5.6169959E5
1356 1355 -5.6420059E5
1356 1356 1.12590018E6
1356 1357 -5.6169959E5
1357 1356 -5.6420059E5
1357 1357 1.12590018E6
1357 1358 -5.6169959E5
1358 1357 -5.6420059E5
1358 1358 1.12590018E6
1358 1359 -5.6169959E5
1359 1358 -5.6420059E5
1359 1359 1.12590018E6
1359 1360 -5.6169959E5
1360 1359 -5.6420059E5
1360 1360 1.12590018E6
1360 1361 -5.6169959E5
1361 1360 -5.6420059E5
1361 1361 1.12590018E6
1361 1362 -5.6169959E5
1362 1361 -5.6420059E5
1362 1362 1.12590018E6
1362 1363 -5.6169959E5
1363 1362 -5.6420059E5
1363 1363 1.12590018E6
1363 1364 -5.6169959E5
1364 1363 -5.6420059E5
1364 1364 1.12590018E6
1364 1365 -5.6169959E5
1365 1364 -5.6420059E5
1365 1365 1.12590018E6
1365 1366 -5.6169959E5
1366 1365 -5.6420059E5
1366 1366 1.12590018E6
1366 1367 -5.6169959E5
1367 1366 -5.6420059E5
1367 1367 1.12590018E6
1367 1368 -5.6169959E5
1368 1367 -5.6420059E5
1368 1368 1.12590018E6
1368 1369 -5.6169959E5
1369 1368 -5.6420059E5
1369 1369 1.12590018E6
1369 1370 -5.6169959E5
1370 1369 -5.6420059E5
1370 1370 1.12590018E6
1370 1371 -5.6169959E5
1371 1370 -5.6420059E5
1371 1371 1.12590018E6
1371 1372 -5.6169959E5
1372 1371 -5.6420059E5
1372 1372 1.12590018E6
1372 1373 -5.6169959E5
1373 1372 -5.6420059E5
1373 1373 1.12590018E6
1373 1374 -5.6169959E5
1374 1373 -5.6420059E5
1374 1374 1.12590018E6
1374 1375 -5.6169959E5
1375 1374 -5.6420059E5
1375 1375 1.12590018E6
1375 1376 -5.6169959E5
1376 1375 -5.6420059E5
1376 1376 1.12590018E6
1376 1377 -5.6169959E5
1377 1376 -5.6420059E5
1377 1377 1.12590018E6
1377 1378 -5.6169959E5
1378 1377 -5.6420059E5
1378 1378 1.12590018E6
1378 1379 -5.6169959E5
1379 1378 -5.6420059E5
1379 1379 1.12590018E6
1379 1380 -5.6169959E5
1380 1379 -5.6420059E5
1380 1380 1.12590018E6
1380 1381 -5.6169959E5
1381 1380 -5.6420059E5
1381 1381 1.12590018E6
1381 1382 -5.6169959E5
1382 1381 -5.6420059E5
1382 1382 1.12590018E6
1382 1383 -5.6169959E5
1383 1382 -5.6420059E5
1383 1383 1.12590018E6
1383 1384 -5.6169959E5
1384 1383 -5.6420059E5
1384 1384 1.12590018E6
1384 1385 -5.6169959E5
1385 1384 -5.6420059E5
1385 1385 1.12590018E6
1385 1386 -5.6169959E5
1386 1385 -5.6420059E5
1386 1386 1.12590018E6
1386 1387 -5.6169959E5
1387 1386 -5.6420059E5
1387 1387 1.12590018E6
1387 1388 -5.6169959E5
1388 1387 -5.6420059E5
1388 1388 1.12590018E6
1388 1389 -5.6169959E5
1389 1388 -5.6420059E5
1389 1389 1.12590018E6
1389 1390 -5.6169959E5
1390 1389 -5.6420059E5
1390 1390 1.12590018E6
1390 1391 -5.6169959E5
1391 1390 -5.6420059E5
1391 1391 1.12590018E6
1391 1392 -5.6169959E5
1392 1391 -5.6420059E5
1392 1392 1.12590018E6
1392 1393 -5.6169959E5
1393 1392 -5.6420059E5
1393 1393 1.12590018E6
1393 1394 -5.6169959E5
1394 1393 -5.6420059E5
1394 1394 1.12590018E6
1394 1395 -5.6169959E5
1395 1394 -5.6420059E5
1395 1395 1.12590018E6
1395 1396 -5.6169959E5
1396 1395 -5.6420059E5
1396 1396 1.12590018E6
1396 1397 -5.6169959E5
1397 1396 -5.6420059E5
1397 1397 1.12590018E6
1397 1398 -5.6169959E5
1398 1397 -5.6420059E5
1398 1398 1.12590018E6
1398 1399 -5.6169959E5
1399 1398 -5.6420059E5
1399 1399 1.12590018E6
1399 1400 -5.6169959E5
1400 1399 -5.6420059E5
1400 1400 1.12590018E6
1400 1401 -5.6169959E5
1401 1400 -5.6420059E5
1401 1401 1.12590018E6
1401 1402 -5.6169959E5
1402 1401 -5.6420059E5
1402 1402 1.12590018E6
1402 1403 -5.6169959E5
1403 1402 -5.6420059E5
1403 1403 1.12590018E6
1403 1404 -5.6169959E5
1404 1403 -5.6420059E5
1404 1404 1.12590018E6
1404 1405 -5.6169959E5
1405 1404 -5.6420059E5
1405 1405 1.12590018E6
1405 1406 -5.6169959E5
1406 1405 -5.6420059E5
1406 1406 1.12590018E6
1406 1407 -5.6169959E5
1407 1406 -5.6420059E5
1407 1407 1.12590018E6
1407 1408 -5.6169959E5
1408 1407 -5.6420059E5
1408 1408 1.12590018E6
1408 1409 -5.6169959E5
1409 1408 -5.6420059E5
1409 1409 1.12590018E6
1409 1410 -5.6169959E5
1410 1409 -5.6420059E5
1410 1410 1.12590018E6
1410 1411 -5.6169959E5
1411 1410 -5.6420059E5
1411 1411 1.12590018E6
1411 1412 -5.6169959E5
1412 1411 -5.6420059E5
1412 1412 1.12590018E6
1412 1413 -5.6169959E5
1413 1412 -5.6420059E5
1413 1413 1.12590018E6
1413 1414 -5.6169959E5
1414 1413 -5.6420059E5
1414 1414 1.12590018E6
1414 1415 -5.6169959E5
1415 1414 -5.6420059E5
1415 1415 1.12590018E6
1415 1416 -5.6169959E5
1416 1415 -5.6420059E5
1416 1416 1.12590018E6
1416 1417 -5.6169959E5
1417 1416 -5.6420059E5
1417 1417 1.12590018E6
1417 1418 -5.6169959E5
1418 1417 -5.6420059E5
1418 1418 1.12590018E6
1418 1419 -5.6169959E5
1419 1418 -5.6420059E5
1419 1419 1.12590018E6
1419 1420 -5.6169959E5
1420 1419 -5.6420059E5
1420 1420 1.12590018E6
1420 1421 -5.6169959E5
1421 1420 -5.6420059E5
1421 1421 1.12590018E6
1421 1422 -5.6169959E5
1422 1421 -5.6420059E5
1422 1422 1.12590018E6
1422 1423 -5.6169959E5
1423 1422 -5.6420059E5
1423 1423 1.12590018E6
1423 1424 -5.6169959E5
1424 1423 -5.6420059E5
1424 1424 1.12590018E6
1424 1425 -5.6169959E5
1425 1424 -5.6420059E5
1425 1425 1.12590018E6
1425 1426 -5.6169959E5
1426 1425 -5.6420059E5
1426 1426 1.12590018E6
1426 1427 -5.6169959E5
1427 1426 -5.6420059E5
1427 1427 1.12590018E6
1427 1428 -5.6169959E5
1428 1427 -5.6420059E5
1428 1428 1.12590018E6
1428 1429 -5.6169959E5
1429 1428 -5.6420059E5
1429 1429 1.12590018E6
1429 1430 -5.6169959E5
1430 1429 -5.6420059E5
1430 1430 1.12590018E6
1430 1431 -5.6169959E5
1431 1430 -5.6420059E5
1431 1431 1.12590018E6
1431 1432 -5.6169959E5
1432 1431 -5.6420059E5
1432 1432 1.12590018E6
1432 1433 -5.6169959E5
1433 1432 -5.6420059E5
1433 1433 1.12590018E6
1433 1434 -5.6169959E5
1434 1433 -5.6420059E5
1434 1434 1.12590018E6
1434 1435 -5.6169959E5
1435 1434 -5.6420059E5
1435 1435 1.12590018E6
1435 1436 -5.6169959E5
1436 1435 -5.6420059E5
1436 1436 1.12590018E6
1436 1437 -5.6169959E5
1437 1436 -5.6420059E5
1437 1437 1.12590018E6
1437 1438 -5.6169959E5
1438 1437 -5.6420059E5
1438 1438 1.12590018E6
1438 1439 -5.6169959E5
1439 1438 -5.6420059E5
1439 1439 1.12590018E6
1439 1440 -5.6169959E5
1440 1439 -5.6420059E5
1440 1440 1.12590018E6
1440 1441 -5.6169959E5
1441 1440 -5.6420059E5
1441 1441 1.12590018E6
1441 1442 -5.6169959E5
1442 1441 -5.6420059E5
1442 1442 1.12590018E6
1442 1443 -5.6169959E5
1443 1442 -5.6420059E5
1443 1443 1.12590018E6
1443 1444 -5.6169959E5
1444 1443 -5.6420059E5
1444 1444 1.12590018E6
1444 1445 -5.6169959E5
1445 1444 -5.6420059E5
1445 1445 1.12590018E6
1445 1446 -5.6169959E5
1446 1445 -5.6420059E5
1446 1446 1.12590018E6
1446 1447 -5.6169959E5
1447 1446 -5.6420059E5
1447 1447 1.12590018E6
1447 1448 -5.6169959E5
1448 1447 -5.6420059E5
1448 1448 1.12590018E6
1448 1449 -5.6169959E5
1449 1448 -5.6420059E5
1449 1449 1.12590018E6
1449 1450 -5.6169959E5
1450 1449 -5.6420059E5
1450 1450 1.12590018E6
1450 1451 -5.6169959E5
1451 1450 -5.6420059E5
1451 1451 1.12590018E6
1451 1452 -5.6169959E5
1452 1451 -5.6420059E5
1452 1452 1.12590018E6
1452 1453 -5.6169959E5
1453 1452 -5.6420059E5
1453 1453 1.12590018E6
1453 1454 -5.6169959E5
1454 1453 -5.6420059E5
1454 1454 1.12590018E6
1454 1455 -5.6169959E5
1455 1454 -5.6420059E5
1455 1455 1.12590018E6
1455 1456 -5.6169959E5
1456 1455 -5.6420059E5
1456 1456 1.12590018E6
1456 1457 -5.6169959E5
1457 1456 -5.6420059E5
1457 1457 1.12590018E6
1457 1458 -5.6169959E5
1458 1457 -5.6420059E5
1458 1458 1.12590018E6
1458 1459 -5.6169959E5
1459 1458 -5.6420059E5
1459 1459 1.12590018E6
1459 1460 -5.6169959E5
1460 1459 -5.6420059E5
1460 1460 1.12590018E6
1460 1461 -5.6169959E5
1461 1460 -5.6420059E5
1461 1461 1.12590018E6
1461 1462 -5.6169959E5
1462 1461 -5.6420059E5
1462 1462 1.12590018E6
1462 1463 -5.6169959E5
1463 1462 -5.6420059E5
1463 1463 1.12590018E6
1463 1464 -5.6169959E5
1464 1463 -5.6420059E5
1464 1464 1.12590018E6
1464 1465 -5.6169959E5
1465 1464 -5.6420059E5
1465 1465 1.12590018E6
1465 1466 -5.6169959E5
1466 1465 -5.6420059E5
1466 1466 1.12590018E6
1466 1467 -5.6169959E5
1467 1466 -5.6420059E5
1467 1467 1.12590018E6
1467 1468 -5.6169959E5
1468 1467 -5.6420059E5
1468 1468 1.12590018E6
1468 1469 -5.6169959E5
1469 1468 -5.6420059E5
1469 1469 1.12590018E6
1469 1470 -5.6169959E5
1470 1469 -5.6420059E5
1470 1470 1.12590018E6
1470 1471 -5.6169959E5
1471 1470 -5.6420059E5
1471 1471 1.12590018E6
1471 1472 -5.6169959E5
1472 1471 -5.6420059E5
1472 1472 1.12590018E6
1472 1473 -5.6169959E5
1473 1472 -5.6420059E5
1473 1473 1.12590018E6
1473 1474 -5.6169959E5
1474 1473 -5.6420059E5
1474 1474 1.12590018E6
1474 1475 -5.6169959E5
1475 1474 -5.6420059E5
1475 1475 1.12590018E6
1475 1476 -5.6169959E5
1476 1475 -5.6420059E5
1476 1476 1.12590018E6
1476 1477 -5.6169959E5
1477 1476 -5.6420059E5
1477 1477 1.12590018E6
1477 1478 -5.6169959E5
1478 1477 -5.6420059E5
1478 1478 1.12590018E6
1478 1479 -5.6169959E5
1479 1478 -5.6420059E5
1479 1479 1.12590018E6
1479 1480 -5.6169959E5
1480 1479 -5.6420059E5
1480 1480 1.12590018E6
1480 1481 -5.6169959E5
1481 1480 -5.6420059E5
1481 1481 1.12590018E6
1481 1482 -5.6169959E5
1482 1481 -5.6420059E5
1482 1482 1.12590018E6
1482 1483 -5.6169959E5
1483 1482 -5.6420059E5
1483 1483 1.12590018E6
1483 1484 -5.6169959E5
1484 1483 -5.6420059E5
1484 1484 1.12590018E6
1484 1485 -5.6169959E5
1485 1484 -5.6420059E5
1485 1485 1.12590018E6
1485 1486 -5.6169959E5
1486 1485 -5.6420059E5
1486 1486 1.12590018E6
1486 1487 -5.6169959E5
1487 1486 -5.6420059E5
1487 1487 1.12590018E6
1487 1488 -5.6169959E5
1488 1487 -5.6420059E5
1488 1488 1.12590018E6
1488 1489 -5.6169959E5
1489 1488 -5.6420059E5
1489 1489 1.12590018E6
1489 1490 -5.6169959E5
1490 1489 -5.6420059E5
1490 1490 1.12590018E6
1490 1491 -5.6169959E5
1491 1490 -5.6420059E5
1491 1491 1.12590018E6
1491 1492 -5.6169959E5
1492 1491 -5.6420059E5
1492 1492 1.12590018E6
1492 1493 -5.6169959E5
1493 1492 -5.6420059E5
1493 1493 1.12590018E6
1493 1494 -5.6169959E5
1494 1493 -5.6420059E5
1494 1494 1.12590018E6
1494 1495 -5.6169959E5
1495 1494 -5.6420059E5
1495 1495 1.12590018E6
1495 1496 -5.6169959E5
1496 1495 -5.6420059E5
1496 1496 1.12590018E6
1496 1497 -5.6169959E5
1497 1496 -5.6420059E5
1497 1497 1.12590018E6
1497 1498 -5.6169959E5
1498 1497 -5.6420059E5
1498 1498 1.12590018E6
1498 1499 -5.6169959E5
1499 1498 -5.6420059E5
1499 1499 1.12590018E6
1499 1500 -5.6169959E5
1500 1499 -5.6420059E5
1500 1500 1.12590018E6
1500 1501 -5.6169959E5
1501 1500 -5.6420059E5
1501 1501 1.12590018E6
1501 1502 -5.6169959E5
1502 1501 -5.6420059E5
1502 1502 1.12590018E6
1502 1503 -5.6169959E5
1503 1502 -5.6420059E5
1503 1503 1.12590018E6
1503 1504 -5.6169959E5
1504 1503 -5.6420059E5
1504 1504 1.12590018E6
1504 1505 -5.6169959E5
1505 1504 -5.6420059E5
1505 1505 1.12590018E6
1505 1506 -5.6169959E5
1506 1505 -5.6420059E5
1506 1506 1.12590018E6
1506 1507 -5.6169959E5
1507 1506 -5.6420059E5
1507 1507 1.12590018E6
1507 1508 -5.6169959E5
1508 1507 -5.6420059E5
1508 1508 1.12590018E6
1508 1509 -5.6169959E5
1509 1508 -5.6420059E5
1509 1509 1.12590018E6
1509 1510 -5.6169959E5
1510 1509 -5.6420059E5
1510 1510 1.12590018E6
1510 1511 -5.6169959E5
1511 1510 -5.6420059E5
1511 1511 1.12590018E6
1511 1512 -5.6169959E5
1512 1511 -5.6420059E5
1512 1512 1.12590018E6
1512 1513 -5.6169959E5
1513 1512 -5.6420059E5
1513 1513 1.12590018E6
1513 1514 -5.6169959E5
1514 1513 -5.6420059E5
1514 1514 1.12590018E6
1514 1515 -5.6169959E5
1515 1514 -5.6420059E5
1515 1515 1.12590018E6
1515 1516 -5.6169959E5
1516 1515 -5.6420059E5
1516 1516 1.12590018E6
1516 1517 -5.6169959E5
1517 1516 -5.6420059E5
1517 1517 1.12590018E6
1517 1518 -5.6169959E5
1518 1517 -5.6420059E5
1518 1518 1.12590018E6
1518 1519 -5.6169959E5
1519 1518 -5.6420059E5
1519 1519 1.12590018E6
1519 1520 -5.6169959E5
1520 1519 -5.6420059E5
1520 1520 1.12590018E6
1520 1521 -5.6169959E5
1521 1520 -5.6420059E5
1521 1521 1.12590018E6
1521 1522 -5.6169959E5
1522 1521 -5.6420059E5
1522 1522 1.12590018E6
1522 1523 -5.6169959E5
1523 1522 -5.6420059E5
1523 1523 1.12590018E6
1523 1524 -5.6169959E5
1524 1523 -5.6420059E5
1524 1524 1.12590018E6
1524 1525 -5.6169959E5
1525 1524 -5.6420059E5
1525 1525 1.12590018E6
1525 1526 -5.6169959E5
1526 1525 -5.6420059E5
1526 1526 1.12590018E6
1526 1527 -5.6169959E5
1527 1526 -5.6420059E5
1527 1527 1.12590018E6
1527 1528 -5.6169959E5
1528 1527 -5.6420059E5
1528 1528 1.12590018E6
1528 1529 -5.6169959E5
1529 1528 -5.6420059E5
1529 1529 1.12590018E6
1529 1530 -5.6169959E5
1530 1529 -5.6420059E5
1530 1530 1.12590018E6
1530 1531 -5.6169959E5
1531 1530 -5.6420059E5
1531 1531 1.12590018E6
1531 1532 -5.6169959E5
1532 1531 -5.6420059E5
1532 1532 1.12590018E6
1532 1533 -5.6169959E5
1533 1532 -5.6420059E5
1533 1533 1.12590018E6
1533 1534 -5.6169959E5
1534 1533 -5.6420059E5
1534 1534 1.12590018E6
1534 1535 -5.6169959E5
1535 1534 -5.6420059E5
1535 1535 1.12590018E6
1535 1536 -5.6169959E5
1536 1535 -5.6420059E5
1536 1536 1.12590018E6
1536 1537 -5.6169959E5
1537 1536 -5.6420059E5
1537 1537 1.12590018E6
1537 1538 -5.6169959E5
1538 1537 -5.6420059E5
1538 1538 1.12590018E6
1538 1539 -5.6169959E5
1539 1538 -5.6420059E5
1539 1539 1.12590018E6
1539 1540 -5.6169959E5
1540 1539 -5.6420059E5
1540 1540 1.12590018E6
1540 1541 -5.6169959E5
1541 1540 -5.6420059E5
1541 1541 1.12590018E6
1541 1542 -5.6169959E5
1542 1541 -5.6420059E5
1542 1542 1.12590018E6
1542 1543 -5.6169959E5
1543 1542 -5.6420059E5
1543 1543 1.12590018E6
1543 1544 -5.6169959E5
1544 1543 -5.6420059E5
1544 1544 1.12590018E6
1544 1545 -5.6169959E5
1545 1544 -5.6420059E5
1545 1545 1.12590018E6
1545 1546 -5.6169959E5
1546 1545 -5.6420059E5
1546 1546 1.12590018E6
1546 1547 -5.6169959E5
1547 1546 -5.6420059E5
1547 1547 1.12590018E6
1547 1548 -5.6169959E5
1548 1547 -5.6420059E5
1548 1548 1.12590018E6
1548 1549 -5.6169959E5
1549 1548 -5.6420059E5
1549 1549 1.12590018E6
1549 1550 -5.6169959E5
1550 1549 -5.6420059E5
1550 1550 1.12590018E6
1550 1551 -5.6169959E5
1551 1550 -5.6420059E5
1551 1551 1.12590018E6
1551 1552 -5.6169959E5
1552 1551 -5.6420059E5
1552 1552 1.12590018E6
1552 1553 -5.6169959E5
1553 1552 -5.6420059E5
1553 1553 1.12590018E6
1553 1554 -5.6169959E5
1554 1553 -5.6420059E5
1554 1554 1.12590018E6
1554 1555 -5.6169959E5
1555 1554 -5.6420059E5
1555 1555 1.12590018E6
1555 1556 -5.6169959E5
1556 1555 -5.6420059E5
1556 1556 1.12590018E6
1556 1557 -5.6169959E5
1557 1556 -5.6420059E5
1557 1557 1.12590018E6
1557 1558 -5.6169959E5
1558 1557 -5.6420059E5
1558 1558 1.12590018E6
1558 1559 -5.6169959E5
1559 1558 -5.6420059E5
1559 1559 1.12590018E6
1559 1560 -5.6169959E5
1560 1559 -5.6420059E5
1560 1560 1.12590018E6
1560 1561 -5.6169959E5
1561 1560 -5.6420059E5
1561 1561 1.12590018E6
1561 1562 -5.6169959E5
1562 1561 -5.6420059E5
1562 1562 1.12590018E6
1562 1563 -5.6169959E5
1563 1562 -5.6420059E5
1563 1563 1.12590018E6
1563 1564 -5.6169959E5
1564 1563 -5.6420059E5
1564 1564 1.12590018E6
1564 1565 -5.6169959E5
1565 1564 -5.6420059E5
1565 1565 1.12590018E6
1565 1566 -5.6169959E5
1566 1565 -5.6420059E5
1566 1566 1.12590018E6
1566 1567 -5.6169959E5
1567 1566 -5.6420059E5
1567 1567 1.12590018E6
1567 1568 -5.6169959E5
1568 1567 -5.6420059E5
1568 1568 1.12590018E6
1568 1569 -5.6169959E5
1569 1568 -5.6420059E5
1569 1569 1.12590018E6
1569 1570 -5.6169959E5
1570 1569 -5.6420059E5
1570 1570 1.12590018E6
1570 1571 -5.6169959E5
1571 1570 -5.6420059E5
1571 1571 1.12590018E6
1571 1572 -5.6169959E5
1572 1571 -5.6420059E5
1572 1572 1.12590018E6
1572 1573 -5.6169959E5
1573 1572 -5.6420059E5
1573 1573 1.12590018E6
1573 1574 -5.6169959E5
1574 1573 -5.6420059E5
1574 1574 1.12590018E6
1574 1575 -5.6169959E5
1575 1574 -5.6420059E5
1575 1575 1.12590018E6
1575 1576 -5.6169959E5
1576 1575 -5.6420059E5
1576 1576 1.12590018E6
1576 1577 -5.6169959E5
1577 1576 -5.6420059E5
1577 1577 1.12590018E6
1577 1578 -5.6169959E5
1578 1577 -5.6420059E5
1578 1578 1.12590018E6
1578 1579 -5.6169959E5
1579 1578 -5.6420059E5
1579 1579 1.12590018E6
1579 1580 -5.6169959E5
1580 1579 -5.6420059E5
1580 1580 1.12590018E6
1580 1581 -5.6169959E5
1581 1580 -5.6420059E5
1581 1581 1.12590018E6
1581 1582 -5.6169959E5
1582 1581 -5.6420059E5
1582 1582 1.12590018E6
1582 1583 -5.6169959E5
1583 1582 -5.6420059E5
1583 1583 1.12590018E6
1583 1584 -5.6169959E5
1584 1583 -5.6420059E5
1584 1584 1.12590018E6
1584 1585 -5.6169959E5
1585 1584 -5.6420059E5
1585 1585 1.12590018E6
1585 1586 -5.6169959E5
1586 1585 -5.6420059E5
1586 1586 1.12590018E6
1586 1587 -5.6169959E5
1587 1586 -5.6420059E5
1587 1587 1.12590018E6
1587 1588 -5.6169959E5
1588 1587 -5.6420059E5
1588 1588 1.12590018E6
1588 1589 -5.6169959E5
1589 1588 -5.6420059E5
1589 1589 1.12590018E6
1589 1590 -5.6169959E5
1590 1589 -5.6420059E5
1590 1590 1.12590018E6
1590 1591 -5.6169959E5
1591 1590 -5.6420059E5
1591 1591 1.12590018E6
1591 1592 -5.6169959E5
1592 1591 -5.6420059E5
1592 1592 1.12590018E6
1592 1593 -5.6169959E5
1593 1592 -5.6420059E5
1593 1593 1.12590018E6
1593 1594 -5.6169959E5
1594 1593 -5.6420059E5
1594 1594 1.12590018E6
1594 1595 -5.6169959E5
1595 1594 -5.6420059E5
1595 1595 1.12590018E6
1595 1596 -5.6169959E5
1596 1595 -5.6420059E5
1596 1596 1.12590018E6
1596 1597 -5.6169959E5
1597 1596 -5.6420059E5
1597 1597 1.12590018E6
1597 1598 -5.6169959E5
1598 1597 -5.6420059E5
1598 1598 1.12590018E6
1598 1599 -5.6169959E5
1599 1598 -5.6420059E5
1599 1599 1.12590018E6
1599 1600 -5.6169959E5
1600 1599 -5.6420059E5
1600 1600 1.12590018E6
1600 1601 -5.6169959E5
1601 1600 -5.6420059E5
1601 1601 1.12590018E6
1601 1602 -5.6169959E5
1602 1601 -5.6420059E5
1602 1602 1.12590018E6
1602 1603 -5.6169959E5
1603 1602 -5.6420059E5
1603 1603 1.12590018E6
1603 1604 -5.6169959E5
1604 1603 -5.6420059E5
1604 1604 1.12590018E6
1604 1605 -5.6169959E5
1605 1604 -5.6420059E5
1605 1605 1.12590018E6
1605 1606 -5.6169959E5
1606 1605 -5.6420059E5
1606 1606 1.12590018E6
1606 1607 -5.6169959E5
1607 1606 -5.6420059E5
1607 1607 1.12590018E6
1607 1608 -5.6169959E5
1608 1607 -5.6420059E5
1608 1608 1.12590018E6
1608 1609 -5.6169959E5
1609 1608 -5.6420059E5
1609 1609 1.12590018E6
1609 1610 -5.6169959E5
1610 1609 -5.6420059E5
1610 1610 1.12590018E6
1610 1611 -5.6169959E5
1611 1610 -5.6420059E5
1611 1611 1.12590018E6
1611 1612 -5.6169959E5
1612 1611 -5.6420059E5
1612 1612 1.12590018E6
1612 1613 -5.6169959E5
1613 1612 -5.6420059E5
1613 1613 1.12590018E6
1613 1614 -5.6169959E5
1614 1613 -5.6420059E5
1614 1614 1.12590018E6
1614 1615 -5.6169959E5
1615 1614 -5.6420059E5
1615 1615 1.12590018E6
1615 1616 -5.6169959E5
1616 1615 -5.6420059E5
1616 1616 1.12590018E6
1616 1617 -5.6169959E5
1617 1616 -5.6420059E5
1617 1617 1.12590018E6
1617 1618 -5.6169959E5
1618 1617 -5.6420059E5
1618 1618 1.12590018E6
1618 1619 -5.6169959E5
1619 1618 -5.6420059E5
1619 1619 1.12590018E6
1619 1620 -5.6169959E5
1620 1619 -5.6420059E5
1620 1620 1.12590018E6
1620 1621 -5.6169959E5
1621 1620 -5.6420059E5
1621 1621 1.12590018E6
1621 1622 -5.6169959E5
1622 1621 -5.6420059E5
1622 1622 1.12590018E6
1622 1623 -5.6169959E5
1623 1622 -5.6420059E5
1623 1623 1.12590018E6
1623 1624 -5.6169959E5
1624 1623 -5.6420059E5
1624 1624 1.12590018E6
1624 1625 -5.6169959E5
1625 1624 -5.6420059E5
1625 1625 1.12590018E6
1625 1626 -5.6169959E5
1626 1625 -5.6420059E5
1626 1626 1.12590018E6
1626 1627 -5.6169959E5
1627 1626 -5.6420059E5
1627 1627 1.12590018E6
1627 1628 -5.6169959E5
1628 1627 -5.6420059E5
1628 1628 1.12590018E6
1628 1629 -5.6169959E5
1629 1628 -5.6420059E5
1629 1629 1.12590018E6
1629 1630 -5.6169959E5
1630 1629 -5.6420059E5
1630 1630 1.12590018E6
1630 1631 -5.6169959E5
1631 1630 -5.6420059E5
1631 1631 1.12590018E6
1631 1632 -5.6169959E5
1632 1631 -5.6420059E5
1632 1632 1.12590018E6
1632 1633 -5.6169959E5
1633 1632 -5.6420059E5
1633 1633 1.12590018E6
1633 1634 -5.6169959E5
1634 1633 -5.6420059E5
1634 1634 1.12590018E6
1634 1635 -5.6169959E5
1635 1634 -5.6420059E5
1635 1635 1.12590018E6
1635 1636 -5.6169959E5
1636 1635 -5.6420059E5
1636 1636 1.12590018E6
1636 1637 -5.6169959E5
1637 1636 -5.6420059E5
1637 1637 1.12590018E6
1637 1638 -5.6169959E5
1638 1637 -5.6420059E5
1638 1638 1.12590018E6
1638 1639 -5.6169959E5
1639 1638 -5.6420059E5
1639 1639 1.12590018E6
1639 1640 -5.6169959E5
1640 1639 -5.6420059E5
1640 1640 1.12590018E6
1640 1641 -5.6169959E5
1641 1640 -5.6420059E5
1641 1641 1.12590018E6
1641 1642 -5.6169959E5
1642 1641 -5.6420059E5
1642 1642 1.12590018E6
1642 1643 -5.6169959E5
1643 1642 -5.6420059E5
1643 1643 1.12590018E6
1643 1644 -5.6169959E5
1644 1643 -5.6420059E5
1644 1644 1.12590018E6
1644 1645 -5.6169959E5
1645 1644 -5.6420059E5
1645 1645 1.12590018E6
1645 1646 -5.6169959E5
1646 1645 -5.6420059E5
1646 1646 1.12590018E6
1646 1647 -5.6169959E5
1647 1646 -5.6420059E5
1647 1647 1.12590018E6
1647 1648 -5.6169959E5
1648 1647 -5.6420059E5
1648 1648 1.12590018E6
1648 1649 -5.6169959E5
1649 1648 -5.6420059E5
1649 1649 1.12590018E6
1649 1650 -5.6169959E5
1650 1649 -5.6420059E5
1650 1650 1.12590018E6
1650 1651 -5.6169959E5
1651 1650 -5.6420059E5
1651 1651 1.12590018E6
1651 1652 -5.6169959E5
1652 1651 -5.6420059E5
1652 1652 1.12590018E6
1652 1653 -5.6169959E5
1653 1652 -5.6420059E5
1653 1653 1.12590018E6
1653 1654 -5.6169959E5
1654 1653 -5.6420059E5
1654 1654 1.12590018E6
1654 1655 -5.6169959E5
1655 1654 -5.6420059E5
1655 1655 1.12590018E6
1655 1656 -5.6169959E5
1656 1655 -5.6420059E5
1656 1656 1.12590018E6
1656 1657 -5.6169959E5
1657 1656 -5.6420059E5
1657 1657 1.12590018E6
1657 1658 -5.6169959E5
1658 1657 -5.6420059E5
1658 1658 1.12590018E6
1658 1659 -5.6169959E5
1659 1658 -5.6420059E5
1659 1659 1.12590018E6
1659 1660 -5.6169959E5
1660 1659 -5.6420059E5
1660 1660 1.12590018E6
1660 1661 -5.6169959E5
1661 1660 -5.6420059E5
1661 1661 1.12590018E6
1661 1662 -5.6169959E5
1662 1661 -5.6420059E5
1662 1662 1.12590018E6
1662 1663 -5.6169959E5
1663 1662 -5.6420059E5
1663 1663 1.12590018E6
1663 1664 -5.6169959E5
1664 1663 -5.6420059E5
1664 1664 1.12590018E6
1664 1665 -5.6169959E5
1665 1664 -5.6420059E5
1665 1665 1.12590018E6
1665 1666 -5.6169959E5
1666 1665 -5.6420059E5
1666 1666 1.12590018E6
1666 1667 -5.6169959E5
1667 1666 -5.6420059E5
1667 1667 1.12590018E6
1667 1668 -5.6169959E5
1668 1667 -5.6420059E5
1668 1668 1.12590018E6
1668 1669 -5.6169959E5
1669 1668 -5.6420059E5
1669 1669 1.12590018E6
1669 1670 -5.6169959E5
1670 1669 -5.6420059E5
1670 1670 1.12590018E6
1670 1671 -5.6169959E5
1671 1670 -5.6420059E5
1671 1671 1.12590018E6
1671 1672 -5.6169959E5
1672 1671 -5.6420059E5
1672 1672 1.12590018E6
1672 1673 -5.6169959E5
1673 1672 -5.6420059E5
1673 1673 1.12590018E6
1673 1674 -5.6169959E5
1674 1673 -5.6420059E5
1674 1674 1.12590018E6
1674 1675 -5.6169959E5
1675 1674 -5.6420059E5
1675 1675 1.12590018E6
1675 1676 -5.6169959E5
1676 1675 -5.6420059E5
1676 1676 1.12590018E6
1676 1677 -5.6169959E5
1677 1676 -5.6420059E5
1677 1677 1.12590018E6
1677 1678 -5.6169959E5
1678 1677 -5.6420059E5
1678 1678 1.12590018E6
1678 1679 -5.6169959E5
1679 1678 -5.6420059E5
1679 1679 1.12590018E6
1679 1680 -5.6169959E5
1680 1679 -5.6420059E5
1680 1680 1.12590018E6
1680 1681 -5.6169959E5
1681 1680 -5.6420059E5
1681 1681 1.12590018E6
1681 1682 -5.6169959E5
1682 1681 -5.6420059E5
1682 1682 1.12590018E6
1682 1683 -5.6169959E5
1683 1682 -5.6420059E5
1683 1683 1.12590018E6
1683 1684 -5.6169959E5
1684 1683 -5.6420059E5
1684 1684 1.12590018E6
1684 1685 -5.6169959E5
1685 1684 -5.6420059E5
1685 1685 1.12590018E6
1685 1686 -5.6169959E5
1686 1685 -5.6420059E5
1686 1686 1.12590018E6
1686 1687 -5.6169959E5
1687 1686 -5.6420059E5
1687 1687 1.12590018E6
1687 1688 -5.6169959E5
1688 1687 -5.6420059E5
1688 1688 1.12590018E6
1688 1689 -5.6169959E5
1689 1688 -5.6420059E5
1689 1689 1.12590018E6
1689 1690 -5.6169959E5
1690 1689 -5.6420059E5
1690 1690 1.12590018E6
1690 1691 -5.6169959E5
1691 1690 -5.6420059E5
1691 1691 1.12590018E6
1691 1692 -5.6169959E5
1692 1691 -5.6420059E5
1692 1692 1.12590018E6
1692 1693 -5.6169959E5
1693 1692 -5.6420059E5
1693 1693 1.12590018E6
1693 1694 -5.6169959E5
1694 1693 -5.6420059E5
1694 1694 1.12590018E6
1694 1695 -5.6169959E5
1695 1694 -5.6420059E5
1695 1695 1.12590018E6
1695 1696 -5.6169959E5
1696 1695 -5.6420059E5
1696 1696 1.12590018E6
1696 1697 -5.6169959E5
1697 1696 -5.6420059E5
1697 1697 1.12590018E6
1697 1698 -5.6169959E5
1698 1697 -5.6420059E5
1698 1698 1.12590018E6
1698 1699 -5.6169959E5
1699 1698 -5.6420059E5
1699 1699 1.12590018E6
1699 1700 -5.6169959E5
1700 1699 -5.6420059E5
1700 1700 1.12590018E6
1700 1701 -5.6169959E5
1701 1700 -5.6420059E5
1701 1701 1.12590018E6
1701 1702 -5.6169959E5
1702 1701 -5.6420059E5
1702 1702 1.12590018E6
1702 1703 -5.6169959E5
1703 1702 -5.6420059E5
1703 1703 1.12590018E6
1703 1704 -5.6169959E5
1704 1703 -5.6420059E5
1704 1704 1.12590018E6
1704 1705 -5.6169959E5
1705 1704 -5.6420059E5
1705 1705 1.12590018E6
1705 1706 -5.6169959E5
1706 1705 -5.6420059E5
1706 1706 1.12590018E6
1706 1707 -5.6169959E5
1707 1706 -5.6420059E5
1707 1707 1.12590018E6
1707 1708 -5.6169959E5
1708 1707 -5.6420059E5
1708 1708 1.12590018E6
1708 1709 -5.6169959E5
1709 1708 -5.6420059E5
1709 1709 1.12590018E6
1709 1710 -5.6169959E5
1710 1709 -5.6420059E5
1710 1710 1.12590018E6
1710 1711 -5.6169959E5
1711 1710 -5.6420059E5
1711 1711 1.12590018E6
1711 1712 -5.6169959E5
1712 1711 -5.6420059E5
1712 1712 1.12590018E6
1712 1713 -5.6169959E5
1713 1712 -5.6420059E5
1713 1713 1.12590018E6
1713 1714 -5.6169959E5
1714 1713 -5.6420059E5
1714 1714 1.12590018E6
1714 1715 -5.6169959E5
1715 1714 -5.6420059E5
1715 1715 1.12590018E6
1715 1716 -5.6169959E5
1716 1715 -5.6420059E5
1716 1716 1.12590018E6
1716 1717 -5.6169959E5
1717 1716 -5.6420059E5
1717 1717 1.12590018E6
1717 1718 -5.6169959E5
1718 1717 -5.6420059E5
1718 1718 1.12590018E6
1718 1719 -5.6169959E5
1719 1718 -5.6420059E5
1719 1719 1.12590018E6
1719 1720 -5.6169959E5
1720 1719 -5.6420059E5
1720 1720 1.12590018E6
1720 1721 -5.6169959E5
1721 1720 -5.6420059E5
1721 1721 1.12590018E6
1721 1722 -5.6169959E5
1722 1721 -5.6420059E5
1722 1722 1.12590018E6
1722 1723 -5.6169959E5
1723 1722 -5.6420059E5
1723 1723 1.12590018E6
1723 1724 -5.6169959E5
1724 1723 -5.6420059E5
1724 1724 1.12590018E6
1724 1725 -5.6169959E5
1725 1724 -5.6420059E5
1725 1725 1.12590018E6
1725 1726 -5.6169959E5
1726 1725 -5.6420059E5
1726 1726 1.12590018E6
1726 1727 -5.6169959E5
1727 1726 -5.6420059E5
1727 1727 1.12590018E6
1727 1728 -5.6169959E5
1728 1727 -5.6420059E5
1728 1728 1.12590018E6
1728 1729 -5.6169959E5
1729 1728 -5.6420059E5
1729 1729 1.12590018E6
1729 1730 -5.6169959E5
1730 1729 -5.6420059E5
1730 1730 1.12590018E6
1730 1731 -5.6169959E5
1731 1730 -5.6420059E5
1731 1731 1.12590018E6
1731 1732 -5.6169959E5
1732 1731 -5.6420059E5
1732 1732 1.12590018E6
1732 1733 -5.6169959E5
1733 1732 -5.6420059E5
1733 1733 1.12590018E6
1733 1734 -5.6169959E5
1734 1733 -5.6420059E5
1734 1734 1.12590018E6
1734 1735 -5.6169959E5
1735 1734 -5.6420059E5
1735 1735 1.12590018E6
1735 1736 -5.6169959E5
1736 1735 -5.6420059E5
1736 1736 1.12590018E6
1736 1737 -5.6169959E5
1737 1736 -5.6420059E5
1737 1737 1.12590018E6
1737 1738 -5.6169959E5
1738 1737 -5.6420059E5
1738 1738 1.12590018E6
1738 1739 -5.6169959E5
1739 1738 -5.6420059E5
1739 1739 1.12590018E6
1739 1740 -5.6169959E5
1740 1739 -5.6420059E5
1740 1740 1.12590018E6
1740 1741 -5.6169959E5
1741 1740 -5.6420059E5
1741 1741 1.12590018E6
1741 1742 -5.6169959E5
1742 1741 -5.6420059E5
1742 1742 1.12590018E6
1742 1743 -5.6169959E5
1743 1742 -5.6420059E5
1743 1743 1.12590018E6
1743 1744 -5.6169959E5
1744 1743 -5.6420059E5
1744 1744 1.12590018E6
1744 1745 -5.6169959E5
1745 1744 -5.6420059E5
1745 1745 1.12590018E6
1745 1746 -5.6169959E5
1746 1745 -5.6420059E5
1746 1746 1.12590018E6
1746 1747 -5.6169959E5
1747 1746 -5.6420059E5
1747 1747 1.12590018E6
1747 1748 -5.6169959E5
1748 1747 -5.6420059E5
1748 1748 1.12590018E6
1748 1749 -5.6169959E5
1749 1748 -5.6420059E5
1749 1749 1.12590018E6
1749 1750 -5.6169959E5
1750 1749 -5.6420059E5
1750 1750 1.12590018E6
1750 1751 -5.6169959E5
1751 1750 -5.6420059E5
1751 1751 1.12590018E6
1751 1752 -5.6169959E5
1752 1751 -5.6420059E5
1752 1752 1.12590018E6
1752 1753 -5.6169959E5
1753 1752 -5.6420059E5
1753 1753 1.12590018E6
1753 1754 -5.6169959E5
1754 1753 -5.6420059E5
1754 1754 1.12590018E6
1754 1755 -5.6169959E5
1755 1754 -5.6420059E5
1755 1755 1.12590018E6
1755 1756 -5.6169959E5
1756 1755 -5.6420059E5
1756 1756 1.12590018E6
1756 1757 -5.6169959E5
1757 1756 -5.6420059E5
1757 1757 1.12590018E6
1757 1758 -5.6169959E5
1758 1757 -5.6420059E5
1758 1758 1.12590018E6
1758 1759 -5.6169959E5
1759 1758 -5.6420059E5
1759 1759 1.12590018E6
1759 1760 -5.6169959E5
1760 1759 -5.6420059E5
1760 1760 1.12590018E6
1760 1761 -5.6169959E5
1761 1760 -5.6420059E5
1761 1761 1.12590018E6
1761 1762 -5.6169959E5
1762 1761 -5.6420059E5
1762 1762 1.12590018E6
1762 1763 -5.6169959E5
1763 1762 -5.6420059E5
1763 1763 1.12590018E6
1763 1764 -5.6169959E5
1764 1763 -5.6420059E5
1764 1764 1.12590018E6
1764 1765 -5.6169959E5
1765 1764 -5.6420059E5
1765 1765 1.12590018E6
1765 1766 -5.6169959E5
1766 1765 -5.6420059E5
1766 1766 1.12590018E6
1766 1767 -5.6169959E5
1767 1766 -5.6420059E5
1767 1767 1.12590018E6
1767 1768 -5.6169959E5
1768 1767 -5.6420059E5
1768 1768 1.12590018E6
1768 1769 -5.6169959E5
1769 1768 -5.6420059E5
1769 1769 1.12590018E6
1769 1770 -5.6169959E5
1770 1769 -5.6420059E5
1770 1770 1.12590018E6
1770 1771 -5.6169959E5
1771 1770 -5.6420059E5
1771 1771 1.12590018E6
1771 1772 -5.6169959E5
1772 1771 -5.6420059E5
1772 1772 1.12590018E6
1772 1773 -5.6169959E5
1773 1772 -5.6420059E5
1773 1773 1.12590018E6
1773 1774 -5.6169959E5
1774 1773 -5.6420059E5
1774 1774 1.12590018E6
1774 1775 -5.6169959E5
1775 1774 -5.6420059E5
1775 1775 1.12590018E6
1775 1776 -5.6169959E5
1776 1775 -5.6420059E5
1776 1776 1.12590018E6
1776 1777 -5.6169959E5
1777 1776 -5.6420059E5
1777 1777 1.12590018E6
1777 1778 -5.6169959E5
1778 1777 -5.6420059E5
1778 1778 1.12590018E6
1778 1779 -5.6169959E5
1779 1778 -5.6420059E5
1779 1779 1.12590018E6
1779 1780 -5.6169959E5
1780 1779 -5.6420059E5
1780 1780 1.12590018E6
1780 1781 -5.6169959E5
1781 1780 -5.6420059E5
1781 1781 1.12590018E6
1781 1782 -5.6169959E5
1782 1781 -5.6420059E5
1782 1782 1.12590018E6
1782 1783 -5.6169959E5
1783 1782 -5.6420059E5
1783 1783 1.12590018E6
1783 1784 -5.6169959E5
1784 1783 -5.6420059E5
1784 1784 1.12590018E6
1784 1785 -5.6169959E5
1785 1784 -5.6420059E5
1785 1785 1.12590018E6
1785 1786 -5.6169959E5
1786 1785 -5.6420059E5
1786 1786 1.12590018E6
1786 1787 -5.6169959E5
1787 1786 -5.6420059E5
1787 1787 1.12590018E6
1787 1788 -5.6169959E5
1788 1787 -5.6420059E5
1788 1788 1.12590018E6
1788 1789 -5.6169959E5
1789 1788 -5.6420059E5
1789 1789 1.12590018E6
1789 1790 -5.6169959E5
1790 1789 -5.6420059E5
1790 1790 1.12590018E6
1790 1791 -5.6169959E5
1791 1790 -5.6420059E5
1791 1791 1.12590018E6
1791 1792 -5.6169959E5
1792 1791 -5.6420059E5
1792 1792 1.12590018E6
1792 1793 -5.6169959E5
1793 1792 -5.6420059E5
1793 1793 1.12590018E6
1793 1794 -5.6169959E5
1794 1793 -5.6420059E5
1794 1794 1.12590018E6
1794 1795 -5.6169959E5
1795 1794 -5.6420059E5
1795 1795 1.12590018E6
1795 1796 -5.6169959E5
1796 1795 -5.6420059E5
1796 1796 1.12590018E6
1796 1797 -5.6169959E5
1797 1796 -5.6420059E5
1797 1797 1.12590018E6
1797 1798 -5.6169959E5
1798 1797 -5.6420059E5
1798 1798 1.12590018E6
1798 1799 -5.6169959E5
1799 1798 -5.6420059E5
1799 1799 1.12590018E6
1799 1800 -5.6169959E5
1800 1799 -5.6420059E5
1800 1800 1.12590018E6
1800 1801 -5.6169959E5
1801 1800 -5.6420059E5
1801 1801 1.12590018E6
1801 1802 -5.6169959E5
1802 1801 -5.6420059E5
1802 1802 1.12590018E6
1802 1803 -5.6169959E5
1803 1802 -5.6420059E5
1803 1803 1.12590018E6
1803 1804 -5.6169959E5
1804 1803 -5.6420059E5
1804 1804 1.12590018E6
1804 1805 -5.6169959E5
1805 1804 -5.6420059E5
1805 1805 1.12590018E6
1805 1806 -5.6169959E5
1806 1805 -5.6420059E5
1806 1806 1.12590018E6
1806 1807 -5.6169959E5
1807 1806 -5.6420059E5
1807 1807 1.12590018E6
1807 1808 -5.6169959E5
1808 1807 -5.6420059E5
1808 1808 1.12590018E6
1808 1809 -5.6169959E5
1809 1808 -5.6420059E5
1809 1809 1.12590018E6
1809 1810 -5.6169959E5
1810 1809 -5.6420059E5
1810 1810 1.12590018E6
1810 1811 -5.6169959E5
1811 1810 -5.6420059E5
1811 1811 1.12590018E6
1811 1812 -5.6169959E5
1812 1811 -5.6420059E5
1812 1812 1.12590018E6
1812 1813 -5.6169959E5
1813 1812 -5.6420059E5
1813 1813 1.12590018E6
1813 1814 -5.6169959E5
1814 1813 -5.6420059E5
1814 1814 1.12590018E6
1814 1815 -5.6169959E5
1815 1814 -5.6420059E5
1815 1815 1.12590018E6
1815 1816 -5.6169959E5
1816 1815 -5.6420059E5
1816 1816 1.12590018E6
1816 1817 -5.6169959E5
1817 1816 -5.6420059E5
1817 1817 1.12590018E6
1817 1818 -5.6169959E5
1818 1817 -5.6420059E5
1818 1818 1.12590018E6
1818 1819 -5.6169959E5
1819 1818 -5.6420059E5
1819 1819 1.12590018E6
1819 1820 -5.6169959E5
1820 1819 -5.6420059E5
1820 1820 1.12590018E6
1820 1821 -5.6169959E5
1821 1820 -5.6420059E5
1821 1821 1.12590018E6
1821 1822 -5.6169959E5
1822 1821 -5.6420059E5
1822 1822 1.12590018E6
1822 1823 -5.6169959E5
1823 1822 -5.6420059E5
1823 1823 1.12590018E6
1823 1824 -5.6169959E5
1824 1823 -5.6420059E5
1824 1824 1.12590018E6
1824 1825 -5.6169959E5
1825 1824 -5.6420059E5
1825 1825 1.12590018E6
1825 1826 -5.6169959E5
1826 1825 -5.6420059E5
1826 1826 1.12590018E6
1826 1827 -5.6169959E5
1827 1826 -5.6420059E5
1827 1827 1.12590018E6
1827 1828 -5.6169959E5
1828 1827 -5.6420059E5
1828 1828 1.12590018E6
1828 1829 -5.6169959E5
1829 1828 -5.6420059E5
1829 1829 1.12590018E6
1829 1830 -5.6169959E5
1830 1829 -5.6420059E5
1830 1830 1.12590018E6
1830 1831 -5.6169959E5
1831 1830 -5.6420059E5
1831 1831 1.12590018E6
1831 1832 -5.6169959E5
1832 1831 -5.6420059E5
1832 1832 1.12590018E6
1832 1833 -5.6169959E5
1833 1832 -5.6420059E5
1833 1833 1.12590018E6
1833 1834 -5.6169959E5
1834 1833 -5.6420059E5
1834 1834 1.12590018E6
1834 1835 -5.6169959E5
1835 1834 -5.6420059E5
1835 1835 1.12590018E6
1835 1836 -5.6169959E5
1836 1835 -5.6420059E5
1836 1836 1.12590018E6
1836 1837 -5.6169959E5
1837 1836 -5.6420059E5
1837 1837 1.12590018E6
1837 1838 -5.6169959E5
1838 1837 -5.6420059E5
1838 1838 1.12590018E6
1838 1839 -5.6169959E5
1839 1838 -5.6420059E5
1839 1839 1.12590018E6
1839 1840 -5.6169959E5
1840 1839 -5.6420059E5
1840 1840 1.12590018E6
1840 1841 -5.6169959E5
1841 1840 -5.6420059E5
1841 1841 1.12590018E6
1841 1842 -5.6169959E5
1842 1841 -5.6420059E5
1842 1842 1.12590018E6
1842 1843 -5.6169959E5
1843 1842 -5.6420059E5
1843 1843 1.12590018E6
1843 1844 -5.6169959E5
1844 1843 -5.6420059E5
1844 1844 1.12590018E6
1844 1845 -5.6169959E5
1845 1844 -5.6420059E5
1845 1845 1.12590018E6
1845 1846 -5.6169959E5
1846 1845 -5.6420059E5
1846 1846 1.12590018E6
1846 1847 -5.6169959E5
1847 1846 -5.6420059E5
1847 1847 1.12590018E6
1847 1848 -5.6169959E5
1848 1847 -5.6420059E5
1848 1848 1.12590018E6
1848 1849 -5.6169959E5
1849 1848 -5.6420059E5
1849 1849 1.12590018E6
1849 1850 -5.6169959E5
1850 1849 -5.6420059E5
1850 1850 1.12590018E6
1850 1851 -5.6169959E5
1851 1850 -5.6420059E5
1851 1851 1.12590018E6
1851 1852 -5.6169959E5
1852 1851 -5.6420059E5
1852 1852 1.12590018E6
1852 1853 -5.6169959E5
1853 1852 -5.6420059E5
1853 1853 1.12590018E6
1853 1854 -5.6169959E5
1854 1853 -5.6420059E5
1854 1854 1.12590018E6
1854 1855 -5.6169959E5
1855 1854 -5.6420059E5
1855 1855 1.12590018E6
1855 1856 -5.6169959E5
1856 1855 -5.6420059E5
1856 1856 1.12590018E6
1856 1857 -5.6169959E5
1857 1856 -5.6420059E5
1857 1857 1.12590018E6
1857 1858 -5.6169959E5
1858 1857 -5.6420059E5
1858 1858 1.12590018E6
1858 1859 -5.6169959E5
1859 1858 -5.6420059E5
1859 1859 1.12590018E6
1859 1860 -5.6169959E5
1860 1859 -5.6420059E5
1860 1860 1.12590018E6
1860 1861 -5.6169959E5
1861 1860 -5.6420059E5
1861 1861 1.12590018E6
1861 1862 -5.6169959E5
1862 1861 -5.6420059E5
1862 1862 1.12590018E6
1862 1863 -5.6169959E5
1863 1862 -5.6420059E5
1863 1863 1.12590018E6
1863 1864 -5.6169959E5
1864 1863 -5.6420059E5
1864 1864 1.12590018E6
1864 1865 -5.6169959E5
1865 1864 -5.6420059E5
1865 1865 1.12590018E6
1865 1866 -5.6169959E5
1866 1865 -5.6420059E5
1866 1866 1.12590018E6
1866 1867 -5.6169959E5
1867 1866 -5.6420059E5
1867 1867 1.12590018E6
1867 1868 -5.6169959E5
1868 1867 -5.6420059E5
1868 1868 1.12590018E6
1868 1869 -5.6169959E5
1869 1868 -5.6420059E5
1869 1869 1.12590018E6
1869 1870 -5.6169959E5
1870 1869 -5.6420059E5
1870 1870 1.12590018E6
1870 1871 -5.6169959E5
1871 1870 -5.6420059E5
1871 1871 1.12590018E6
1871 1872 -5.6169959E5
1872 1871 -5.6420059E5
1872 1872 1.12590018E6
1872 1873 -5.6169959E5
1873 1872 -5.6420059E5
1873 1873 1.12590018E6
1873 1874 -5.6169959E5
1874 1873 -5.6420059E5
1874 1874 1.12590018E6
1874 1875 -5.6169959E5
1875 1874 -5.6420059E5
1875 1875 1.12590018E6
1875 1876 -5.6169959E5
1876 1875 -5.6420059E5
1876 1876 1.12590018E6
1876 1877 -5.6169959E5
1877 1876 -5.6420059E5
1877 1877 1.12590018E6
1877 1878 -5.6169959E5
1878 1877 -5.6420059E5
1878 1878 1.12590018E6
1878 1879 -5.6169959E5
1879 1878 -5.6420059E5
1879 1879 1.12590018E6
1879 1880 -5.6169959E5
1880 1879 -5.6420059E5
1880 1880 1.12590018E6
1880 1881 -5.6169959E5
1881 1880 -5.6420059E5
1881 1881 1.12590018E6
1881 1882 -5.6169959E5
1882 1881 -5.6420059E5
1882 1882 1.12590018E6
1882 1883 -5.6169959E5
1883 1882 -5.6420059E5
1883 1883 1.12590018E6
1883 1884 -5.6169959E5
1884 1883 -5.6420059E5
1884 1884 1.12590018E6
1884 1885 -5.6169959E5
1885 1884 -5.6420059E5
1885 1885 1.12590018E6
1885 1886 -5.6169959E5
1886 1885 -5.6420059E5
1886 1886 1.12590018E6
1886 1887 -5.6169959E5
1887 1886 -5.6420059E5
1887 1887 1.12590018E6
1887 1888 -5.6169959E5
1888 1887 -5.6420059E5
1888 1888 1.12590018E6
1888 1889 -5.6169959E5
1889 1888 -5.6420059E5
1889 1889 1.12590018E6
1889 1890 -5.6169959E5
1890 1889 -5.6420059E5
1890 1890 1.12590018E6
1890 1891 -5.6169959E5
1891 1890 -5.6420059E5
1891 1891 1.12590018E6
1891 1892 -5.6169959E5
1892 1891 -5.6420059E5
1892 1892 1.12590018E6
1892 1893 -5.6169959E5
1893 1892 -5.6420059E5
1893 1893 1.12590018E6
1893 1894 -5.6169959E5
1894 1893 -5.6420059E5
1894 1894 1.12590018E6
1894 1895 -5.6169959E5
1895 1894 -5.6420059E5
1895 1895 1.12590018E6
1895 1896 -5.6169959E5
1896 1895 -5.6420059E5
1896 1896 1.12590018E6
1896 1897 -5.6169959E5
1897 1896 -5.6420059E5
1897 1897 1.12590018E6
1897 1898 -5.6169959E5
1898 1897 -5.6420059E5
1898 1898 1.12590018E6
1898 1899 -5.6169959E5
1899 1898 -5.6420059E5
1899 1899 1.12590018E6
1899 1900 -5.6169959E5
1900 1899 -5.6420059E5
1900 1900 1.12590018E6
1900 1901 -5.6169959E5
1901 1900 -5.6420059E5
1901 1901 1.12590018E6
1901 1902 -5.6169959E5
1902 1901 -5.6420059E5
1902 1902 1.12590018E6
1902 1903 -5.6169959E5
1903 1902 -5.6420059E5
1903 1903 1.12590018E6
1903 1904 -5.6169959E5
1904 1903 -5.6420059E5
1904 1904 1.12590018E6
1904 1905 -5.6169959E5
1905 1904 -5.6420059E5
1905 1905 1.12590018E6
1905 1906 -5.6169959E5
1906 1905 -5.6420059E5
1906 1906 1.12590018E6
1906 1907 -5.6169959E5
1907 1906 -5.6420059E5
1907 1907 1.12590018E6
1907 1908 -5.6169959E5
1908 1907 -5.6420059E5
1908 1908 1.12590018E6
1908 1909 -5.6169959E5
1909 1908 -5.6420059E5
1909 1909 1.12590018E6
1909 1910 -5.6169959E5
1910 1909 -5.6420059E5
1910 1910 1.12590018E6
1910 1911 -5.6169959E5
1911 1910 -5.6420059E5
1911 1911 1.12590018E6
1911 1912 -5.6169959E5
1912 1911 -5.6420059E5
1912 1912 1.12590018E6
1912 1913 -5.6169959E5
1913 1912 -5.6420059E5
1913 1913 1.12590018E6
1913 1914 -5.6169959E5
1914 1913 -5.6420059E5
1914 1914 1.12590018E6
1914 1915 -5.6169959E5
1915 1914 -5.6420059E5
1915 1915 1.12590018E6
1915 1916 -5.6169959E5
1916 1915 -5.6420059E5
1916 1916 1.12590018E6
1916 1917 -5.6169959E5
1917 1916 -5.6420059E5
1917 1917 1.12590018E6
1917 1918 -5.6169959E5
1918 1917 -5.6420059E5
1918 1918 1.12590018E6
1918 1919 -5.6169959E5
1919 1918 -5.6420059E5
1919 1919 1.12590018E6
1919 1920 -5.6169959E5
1920 1919 -5.6420059E5
1920 1920 1.12590018E6
1920 1921 -5.6169959E5
1921 1920 -5.6420059E5
1921 1921 1.12590018E6
1921 1922 -5.6169959E5
1922 1921 -5.6420059E5
1922 1922 1.12590018E6
1922 1923 -5.6169959E5
1923 1922 -5.6420059E5
1923 1923 1.12590018E6
1923 1924 -5.6169959E5
1924 1923 -5.6420059E5
1924 1924 1.12590018E6
1924 1925 -5.6169959E5
1925 1924 -5.6420059E5
1925 1925 1.12590018E6
1925 1926 -5.6169959E5
1926 1925 -5.6420059E5
1926 1926 1.12590018E6
1926 1927 -5.6169959E5
1927 1926 -5.6420059E5
1927 1927 1.12590018E6
1927 1928 -5.6169959E5
1928 1927 -5.6420059E5
1928 1928 1.12590018E6
1928 1929 -5.6169959E5
1929 1928 -5.6420059E5
1929 1929 1.12590018E6
1929 1930 -5.6169959E5
1930 1929 -5.6420059E5
1930 1930 1.12590018E6
1930 1931 -5.6169959E5
1931 1930 -5.6420059E5
1931 1931 1.12590018E6
1931 1932 -5.6169959E5
1932 1931 -5.6420059E5
1932 1932 1.12590018E6
1932 1933 -5.6169959E5
1933 1932 -5.6420059E5
1933 1933 1.12590018E6
1933 1934 -5.6169959E5
1934 1933 -5.6420059E5
1934 1934 1.12590018E6
1934 1935 -5.6169959E5
1935 1934 -5.6420059E5
1935 1935 1.12590018E6
1935 1936 -5.6169959E5
1936 1935 -5.6420059E5
1936 1936 1.12590018E6
1936 1937 -5.6169959E5
1937 1936 -5.6420059E5
1937 1937 1.12590018E6
1937 1938 -5.6169959E5
1938 1937 -5.6420059E5
1938 1938 1.12590018E6
1938 1939 -5.6169959E5
1939 1938 -5.6420059E5
1939 1939 1.12590018E6
1939 1940 -5.6169959E5
1940 1939 -5.6420059E5
1940 1940 1.12590018E6
1940 1941 -5.6169959E5
1941 1940 -5.6420059E5
1941 1941 1.12590018E6
1941 1942 -5.6169959E5
1942 1941 -5.6420059E5
1942 1942 1.12590018E6
1942 1943 -5.6169959E5
1943 1942 -5.6420059E5
1943 1943 1.12590018E6
1943 1944 -5.6169959E5
1944 1943 -5.6420059E5
1944 1944 1.12590018E6
1944 1945 -5.6169959E5
1945 1944 -5.6420059E5
1945 1945 1.12590018E6
1945 1946 -5.6169959E5
1946 1945 -5.6420059E5
1946 1946 1.12590018E6
1946 1947 -5.6169959E5
1947 1946 -5.6420059E5
1947 1947 1.12590018E6
1947 1948 -5.6169959E5
1948 1947 -5.6420059E5
1948 1948 1.12590018E6
1948 1949 -5.6169959E5
1949 1948 -5.6420059E5
1949 1949 1.12590018E6
1949 1950 -5.6169959E5
1950 1949 -5.6420059E5
1950 1950 1.12590018E6
1950 1951 -5.6169959E5
1951 1950 -5.6420059E5
1951 1951 1.12590018E6
1951 1952 -5.6169959E5
1952 1951 -5.6420059E5
1952 1952 1.12590018E6
1952 1953 -5.6169959E5
1953 1952 -5.6420059E5
1953 1953 1.12590018E6
1953 1954 -5.6169959E5
1954 1953 -5.6420059E5
1954 1954 1.12590018E6
1954 1955 -5.6169959E5
1955 1954 -5.6420059E5
1955 1955 1.12590018E6
1955 1956 -5.6169959E5
1956 1955 -5.6420059E5
1956 1956 1.12590018E6
1956 1957 -5.6169959E5
1957 1956 -5.6420059E5
1957 1957 1.12590018E6
1957 1958 -5.6169959E5
1958 1957 -5.6420059E5
1958 1958 1.12590018E6
1958 1959 -5.6169959E5
1959 1958 -5.6420059E5
1959 1959 1.12590018E6
1959 1960 -5.6169959E5
1960 1959 -5.6420059E5
1960 1960 1.12590018E6
1960 1961 -5.6169959E5
1961 1960 -5.6420059E5
1961 1961 1.12590018E6
1961 1962 -5.6169959E5
1962 1961 -5.6420059E5
1962 1962 1.12590018E6
1962 1963 -5.6169959E5
1963 1962 -5.6420059E5
1963 1963 1.12590018E6
1963 1964 -5.6169959E5
1964 1963 -5.6420059E5
1964 1964 1.12590018E6
1964 1965 -5.6169959E5
1965 1964 -5.6420059E5
1965 1965 1.12590018E6
1965 1966 -5.6169959E5
1966 1965 -5.6420059E5
1966 1966 1.12590018E6
1966 1967 -5.6169959E5
1967 1966 -5.6420059E5
1967 1967 1.12590018E6
1967 1968 -5.6169959E5
1968 1967 -5.6420059E5
1968 1968 1.12590018E6
1968 1969 -5.6169959E5
1969 1968 -5.6420059E5
1969 1969 1.12590018E6
1969 1970 -5.6169959E5
1970 1969 -5.6420059E5
1970 1970 1.12590018E6
1970 1971 -5.6169959E5
1971 1970 -5.6420059E5
1971 1971 1.12590018E6
1971 1972 -5.6169959E5
1972 1971 -5.6420059E5
1972 1972 1.12590018E6
1972 1973 -5.6169959E5
1973 1972 -5.6420059E5
1973 1973 1.12590018E6
1973 1974 -5.6169959E5
1974 1973 -5.6420059E5
1974 1974 1.12590018E6
1974 1975 -5.6169959E5
1975 1974 -5.6420059E5
1975 1975 1.12590018E6
1975 1976 -5.6169959E5
1976 1975 -5.6420059E5
1976 1976 1.12590018E6
1976 1977 -5.6169959E5
1977 1976 -5.6420059E5
1977 1977 1.12590018E6
1977 1978 -5.6169959E5
1978 1977 -5.6420059E5
1978 1978 1.12590018E6
1978 1979 -5.6169959E5
1979 1978 -5.6420059E5
1979 1979 1.12590018E6
1979 1980 -5.6169959E5
1980 1979 -5.6420059E5
1980 1980 1.12590018E6
1980 1981 -5.6169959E5
1981 1980 -5.6420059E5
1981 1981 1.12590018E6
1981 1982 -5.6169959E5
1982 1981 -5.6420059E5
1982 1982 1.12590018E6
1982 1983 -5.6169959E5
1983 1982 -5.6420059E5
1983 1983 1.12590018E6
1983 1984 -5.6169959E5
1984 1983 -5.6420059E5
1984 1984 1.12590018E6
1984 1985 -5.6169959E5
1985 1984 -5.6420059E5
1985 1985 1.12590018E6
1985 1986 -5.6169959E5
1986 1985 -5.6420059E5
1986 1986 1.12590018E6
1986 1987 -5.6169959E5
1987 1986 -5.6420059E5
1987 1987 1.12590018E6
1987 1988 -5.6169959E5
1988 1987 -5.6420059E5
1988 1988 1.12590018E6
1988 1989 -5.6169959E5
1989 1988 -5.6420059E5
1989 1989 1.12590018E6
1989 1990 -5.6169959E5
1990 1989 -5.6420059E5
1990 1990 1.12590018E6
1990 1991 -5.6169959E5
1991 1990 -5.6420059E5
1991 1991 1.12590018E6
1991 1992 -5.6169959E5
1992 1991 -5.6420059E5
1992 1992 1.12590018E6
1992 1993 -5.6169959E5
1993 1992 -5.6420059E5
1993 1993 1.12590018E6
1993 1994 -5.6169959E5
1994 1993 -5.6420059E5
1994 1994 1.12590018E6
1994 1995 -5.6169959E5
1995 1994 -5.6420059E5
1995 1995 1.12590018E6
1995 1996 -5.6169959E5
1996 1995 -5.6420059E5
1996 1996 1.12590018E6
1996 1997 -5.6169959E5
1997 1996 -5.6420059E5
1997 1997 1.12590018E6
1997 1998 -5.6169959E5
1998 1997 -5.6420059E5
1998 1998 1.12590018E6
1998 1999 -5.6169959E5
1999 1998 -5.6420059E5
1999 1999 1.12590018E6
1999 2000 -5.6169959E5
2000 1999 -5.6420059E5
2000 2000 1.12590018E6
2000 2001 -5.6169959E5
2001 2000 -5.6420059E5
2001 2001 1.12590018E6
2001 2002 -5.6169959E5
2002 2001 -5.6420059E5
2002 2002 1.12590018E6
2002 2003 -5.6169959E5
2003 2002 -5.6420059E5
2003 2003 1.12590018E6
2003 2004 -5.6169959E5
2004 2003 -5.6420059E5
2004 2004 1.12590018E6
2004 2005 -5.6169959E5
2005 2004 -5.6420059E5
2005 2005 1.12590018E6
2005 2006 -5.6169959E5
2006 2005 -5.6420059E5
2006 2006 1.12590018E6
2006 2007 -5.6169959E5
2007 2006 -5.6420059E5
2007 2007 1.12590018E6
2007 2008 -5.6169959E5
2008 2007 -5.6420059E5
2008 2008 1.12590018E6
2008 2009 -5.6169959E5
2009 2008 -5.6420059E5
2009 2009 1.12590018E6
2009 2010 -5.6169959E5
2010 2009 -5.6420059E5
2010 2010 1.12590018E6
2010 2011 -5.6169959E5
2011 2010 -5.6420059E5
2011 2011 1.12590018E6
2011 2012 -5.6169959E5
2012 2011 -5.6420059E5
2012 2012 1.12590018E6
2012 2013 -5.6169959E5
2013 2012 -5.6420059E5
2013 2013 1.12590018E6
2013 2014 -5.6169959E5
2014 2013 -5.6420059E5
2014 2014 1.12590018E6
2014 2015 -5.6169959E5
2015 2014 -5.6420059E5
2015 2015 1.12590018E6
2015 2016 -5.6169959E5
2016 2015 -5.6420059E5
2016 2016 1.12590018E6
2016 2017 -5.6169959E5
2017 2016 -5.6420059E5
2017 2017 1.12590018E6
2017 2018 -5.6169959E5
2018 2017 -5.6420059E5
2018 2018 1.12590018E6
2018 2019 -5.6169959E5
2019 2018 -5.6420059E5
2019 2019 1.12590018E6
2019 2020 -5.6169959E5
2020 2019 -5.6420059E5
2020 2020 1.12590018E6
2020 2021 -5.6169959E5
2021 2020 -5.6420059E5
2021 2021 1.12590018E6
2021 2022 -5.6169959E5
2022 2021 -5.6420059E5
2022 2022 1.12590018E6
2022 2023 -5.6169959E5
2023 2022 -5.6420059E5
2023 2023 1.12590018E6
2023 2024 -5.6169959E5
2024 2023 -5.6420059E5
2024 2024 1.12590018E6
2024 2025 -5.6169959E5
2025 2024 -5.6420059E5
2025 2025 1.12590018E6
2025 2026 -5.6169959E5
2026 2025 -5.6420059E5
2026 2026 1.12590018E6
2026 2027 -5.6169959E5
2027 2026 -5.6420059E5
2027 2027 1.12590018E6
2027 2028 -5.6169959E5
2028 2027 -5.6420059E5
2028 2028 1.12590018E6
2028 2029 -5.6169959E5
2029 2028 -5.6420059E5
2029 2029 1.12590018E6
2029 2030 -5.6169959E5
2030 2029 -5.6420059E5
2030 2030 1.12590018E6
2030 2031 -5.6169959E5
2031 2030 -5.6420059E5
2031 2031 1.12590018E6
2031 2032 -5.6169959E5
2032 2031 -5.6420059E5
2032 2032 1.12590018E6
2032 2033 -5.6169959E5
2033 2032 -5.6420059E5
2033 2033 1.12590018E6
2033 2034 -5.6169959E5
2034 2033 -5.6420059E5
2034 2034 1.12590018E6
2034 2035 -5.6169959E5
2035 2034 -5.6420059E5
2035 2035 1.12590018E6
2035 2036 -5.6169959E5
2036 2035 -5.6420059E5
2036 2036 1.12590018E6
2036 2037 -5.6169959E5
2037 2036 -5.6420059E5
2037 2037 1.12590018E6
2037 2038 -5.6169959E5
2038 2037 -5.6420059E5
2038 2038 1.12590018E6
2038 2039 -5.6169959E5
2039 2038 -5.6420059E5
2039 2039 1.12590018E6
2039 2040 -5.6169959E5
2040 2039 -5.6420059E5
2040 2040 1.12590018E6
2040 2041 -5.6169959E5
2041 2040 -5.6420059E5
2041 2041 1.12590018E6
2041 2042 -5.6169959E5
2042 2041 -5.6420059E5
2042 2042 1.12590018E6
2042 2043 -5.6169959E5
2043 2042 -5.6420059E5
2043 2043 1.12590018E6
2043 2044 -5.6169959E5
2044 2043 -5.6420059E5
2044 2044 1.12590018E6
2044 2045 -5.6169959E5
2045 2044 -5.6420059E5
2045 2045 1.12590018E6
2045 2046 -5.6169959E5
2046 2045 -5.6420059E5
2046 2046 1.12590018E6
2046 2047 -5.6169959E5
2047 2046 -5.6420059E5
2047 2047 1.12590018E6
2047 2048 -5.6169959E5
2048 2047 -5.6420059E5
2048 2048 1.12590018E6
2048 2049 -5.6169959E5
2049 2048 -5.6420059E5
2049 2049 1.12590018E6
2049 2050 -5.6169959E5
2050 2049 -5.6420059E5
2050 2050 1.12590018E6
2050 2051 -5.6169959E5
2051 2050 -5.6420059E5
2051 2051 1.12590018E6
2051 2052 -5.6169959E5
2052 2051 -5.6420059E5
2052 2052 1.12590018E6
2052 2053 -5.6169959E5
2053 2052 -5.6420059E5
2053 2053 1.12590018E6
2053 2054 -5.6169959E5
2054 2053 -5.6420059E5
2054 2054 1.12590018E6
2054 2055 -5.6169959E5
2055 2054 -5.6420059E5
2055 2055 1.12590018E6
2055 2056 -5.6169959E5
2056 2055 -5.6420059E5
2056 2056 1.12590018E6
2056 2057 -5.6169959E5
2057 2056 -5.6420059E5
2057 2057 1.12590018E6
2057 2058 -5.6169959E5
2058 2057 -5.6420059E5
2058 2058 1.12590018E6
2058 2059 -5.6169959E5
2059 2058 -5.6420059E5
2059 2059 1.12590018E6
2059 2060 -5.6169959E5
2060 2059 -5.6420059E5
2060 2060 1.12590018E6
2060 2061 -5.6169959E5
2061 2060 -5.6420059E5
2061 2061 1.12590018E6
2061 2062 -5.6169959E5
2062 2061 -5.6420059E5
2062 2062 1.12590018E6
2062 2063 -5.6169959E5
2063 2062 -5.6420059E5
2063 2063 1.12590018E6
2063 2064 -5.6169959E5
2064 2063 -5.6420059E5
2064 2064 1.12590018E6
2064 2065 -5.6169959E5
2065 2064 -5.6420059E5
2065 2065 1.12590018E6
2065 2066 -5.6169959E5
2066 2065 -5.6420059E5
2066 2066 1.12590018E6
2066 2067 -5.6169959E5
2067 2066 -5.6420059E5
2067 2067 1.12590018E6
2067 2068 -5.6169959E5
2068 2067 -5.6420059E5
2068 2068 1.12590018E6
2068 2069 -5.6169959E5
2069 2068 -5.6420059E5
2069 2069 1.12590018E6
2069 2070 -5.6169959E5
2070 2069 -5.6420059E5
2070 2070 1.12590018E6
2070 2071 -5.6169959E5
2071 2070 -5.6420059E5
2071 2071 1.12590018E6
2071 2072 -5.6169959E5
2072 2071 -5.6420059E5
2072 2072 1.12590018E6
2072 2073 -5.6169959E5
2073 2072 -5.6420059E5
2073 2073 1.12590018E6
2073 2074 -5.6169959E5
2074 2073 -5.6420059E5
2074 2074 1.12590018E6
2074 2075 -5.6169959E5
2075 2074 -5.6420059E5
2075 2075 1.12590018E6
2075 2076 -5.6169959E5
2076 2075 -5.6420059E5
2076 2076 1.12590018E6
2076 2077 -5.6169959E5
2077 2076 -5.6420059E5
2077 2077 1.12590018E6
2077 2078 -5.6169959E5
2078 2077 -5.6420059E5
2078 2078 1.12590018E6
2078 2079 -5.6169959E5
2079 2078 -5.6420059E5
2079 2079 1.12590018E6
2079 2080 -5.6169959E5
2080 2079 -5.6420059E5
2080 2080 1.12590018E6
2080 2081 -5.6169959E5
2081 2080 -5.6420059E5
2081 2081 1.12590018E6
2081 2082 -5.6169959E5
2082 2081 -5.6420059E5
2082 2082 1.12590018E6
2082 2083 -5.6169959E5
2083 2082 -5.6420059E5
2083 2083 1.12590018E6
2083 2084 -5.6169959E5
2084 2083 -5.6420059E5
2084 2084 1.12590018E6
2084 2085 -5.6169959E5
2085 2084 -5.6420059E5
2085 2085 1.12590018E6
2085 2086 -5.6169959E5
2086 2085 -5.6420059E5
2086 2086 1.12590018E6
2086 2087 -5.6169959E5
2087 2086 -5.6420059E5
2087 2087 1.12590018E6
2087 2088 -5.6169959E5
2088 2087 -5.6420059E5
2088 2088 1.12590018E6
2088 2089 -5.6169959E5
2089 2088 -5.6420059E5
2089 2089 1.12590018E6
2089 2090 -5.6169959E5
2090 2089 -5.6420059E5
2090 2090 1.12590018E6
2090 2091 -5.6169959E5
2091 2090 -5.6420059E5
2091 2091 1.12590018E6
2091 2092 -5.6169959E5
2092 2091 -5.6420059E5
2092 2092 1.12590018E6
2092 2093 -5.6169959E5
2093 2092 -5.6420059E5
2093 2093 1.12590018E6
2093 2094 -5.6169959E5
2094 2093 -5.6420059E5
2094 2094 1.12590018E6
2094 2095 -5.6169959E5
2095 2094 -5.6420059E5
2095 2095 1.12590018E6
2095 2096 -5.6169959E5
2096 2095 -5.6420059E5
2096 2096 1.12590018E6
2096 2097 -5.6169959E5
2097 2096 -5.6420059E5
2097 2097 1.12590018E6
2097 2098 -5.6169959E5
2098 2097 -5.6420059E5
2098 2098 1.12590018E6
2098 2099 -5.6169959E5
2099 2098 -5.6420059E5
2099 2099 1.12590018E6
2099 2100 -5.6169959E5
2100 2099 -5.6420059E5
2100 2100 1.12590018E6
2100 2101 -5.6169959E5
2101 2100 -5.6420059E5
2101 2101 1.12590018E6
2101 2102 -5.6169959E5
2102 2101 -5.6420059E5
2102 2102 1.12590018E6
2102 2103 -5.6169959E5
2103 2102 -5.6420059E5
2103 2103 1.12590018E6
2103 2104 -5.6169959E5
2104 2103 -5.6420059E5
2104 2104 1.12590018E6
2104 2105 -5.6169959E5
2105 2104 -5.6420059E5
2105 2105 1.12590018E6
2105 2106 -5.6169959E5
2106 2105 -5.6420059E5
2106 2106 1.12590018E6
2106 2107 -5.6169959E5
2107 2106 -5.6420059E5
2107 2107 1.12590018E6
2107 2108 -5.6169959E5
2108 2107 -5.6420059E5
2108 2108 1.12590018E6
2108 2109 -5.6169959E5
2109 2108 -5.6420059E5
2109 2109 1.12590018E6
2109 2110 -5.6169959E5
2110 2109 -5.6420059E5
2110 2110 1.12590018E6
2110 2111 -5.6169959E5
2111 2110 -5.6420059E5
2111 2111 1.12590018E6
2111 2112 -5.6169959E5
2112 2111 -5.6420059E5
2112 2112 1.12590018E6
2112 2113 -5.6169959E5
2113 2112 -5.6420059E5
2113 2113 1.12590018E6
2113 2114 -5.6169959E5
2114 2113 -5.6420059E5
2114 2114 1.12590018E6
2114 2115 -5.6169959E5
2115 2114 -5.6420059E5
2115 2115 1.12590018E6
2115 2116 -5.6169959E5
2116 2115 -5.6420059E5
2116 2116 1.12590018E6
2116 2117 -5.6169959E5
2117 2116 -5.6420059E5
2117 2117 1.12590018E6
2117 2118 -5.6169959E5
2118 2117 -5.6420059E5
2118 2118 1.12590018E6
2118 2119 -5.6169959E5
2119 2118 -5.6420059E5
2119 2119 1.12590018E6
2119 2120 -5.6169959E5
2120 2119 -5.6420059E5
2120 2120 1.12590018E6
2120 2121 -5.6169959E5
2121 2120 -5.6420059E5
2121 2121 1.12590018E6
2121 2122 -5.6169959E5
2122 2121 -5.6420059E5
2122 2122 1.12590018E6
2122 2123 -5.6169959E5
2123 2122 -5.6420059E5
2123 2123 1.12590018E6
2123 2124 -5.6169959E5
2124 2123 -5.6420059E5
2124 2124 1.12590018E6
2124 2125 -5.6169959E5
2125 2124 -5.6420059E5
2125 2125 1.12590018E6
2125 2126 -5.6169959E5
2126 2125 -5.6420059E5
2126 2126 1.12590018E6
2126 2127 -5.6169959E5
2127 2126 -5.6420059E5
2127 2127 1.12590018E6
2127 2128 -5.6169959E5
2128 2127 -5.6420059E5
2128 2128 1.12590018E6
2128 2129 -5.6169959E5
2129 2128 -5.6420059E5
2129 2129 1.12590018E6
2129 2130 -5.6169959E5
2130 2129 -5.6420059E5
2130 2130 1.12590018E6
2130 2131 -5.6169959E5
2131 2130 -5.6420059E5
2131 2131 1.12590018E6
2131 2132 -5.6169959E5
2132 2131 -5.6420059E5
2132 2132 1.12590018E6
2132 2133 -5.6169959E5
2133 2132 -5.6420059E5
2133 2133 1.12590018E6
2133 2134 -5.6169959E5
2134 2133 -5.6420059E5
2134 2134 1.12590018E6
2134 2135 -5.6169959E5
2135 2134 -5.6420059E5
2135 2135 1.12590018E6
2135 2136 -5.6169959E5
2136 2135 -5.6420059E5
2136 2136 1.12590018E6
2136 2137 -5.6169959E5
2137 2136 -5.6420059E5
2137 2137 1.12590018E6
2137 2138 -5.6169959E5
2138 2137 -5.6420059E5
2138 2138 1.12590018E6
2138 2139 -5.6169959E5
2139 2138 -5.6420059E5
2139 2139 1.12590018E6
2139 2140 -5.6169959E5
2140 2139 -5.6420059E5
2140 2140 1.12590018E6
2140 2141 -5.6169959E5
2141 2140 -5.6420059E5
2141 2141 1.12590018E6
2141 2142 -5.6169959E5
2142 2141 -5.6420059E5
2142 2142 1.12590018E6
2142 2143 -5.6169959E5
2143 2142 -5.6420059E5
2143 2143 1.12590018E6
2143 2144 -5.6169959E5
2144 2143 -5.6420059E5
2144 2144 1.12590018E6
2144 2145 -5.6169959E5
2145 2144 -5.6420059E5
2145 2145 1.12590018E6
2145 2146 -5.6169959E5
2146 2145 -5.6420059E5
2146 2146 1.12590018E6
2146 2147 -5.6169959E5
2147 2146 -5.6420059E5
2147 2147 1.12590018E6
2147 2148 -5.6169959E5
2148 2147 -5.6420059E5
2148 2148 1.12590018E6
2148 2149 -5.6169959E5
2149 2148 -5.6420059E5
2149 2149 1.12590018E6
2149 2150 -5.6169959E5
2150 2149 -5.6420059E5
2150 2150 1.12590018E6
2150 2151 -5.6169959E5
2151 2150 -5.6420059E5
2151 2151 1.12590018E6
2151 2152 -5.6169959E5
2152 2151 -5.6420059E5
2152 2152 1.12590018E6
2152 2153 -5.6169959E5
2153 2152 -5.6420059E5
2153 2153 1.12590018E6
2153 2154 -5.6169959E5
2154 2153 -5.6420059E5
2154 2154 1.12590018E6
2154 2155 -5.6169959E5
2155 2154 -5.6420059E5
2155 2155 1.12590018E6
2155 2156 -5.6169959E5
2156 2155 -5.6420059E5
2156 2156 1.12590018E6
2156 2157 -5.6169959E5
2157 2156 -5.6420059E5
2157 2157 1.12590018E6
2157 2158 -5.6169959E5
2158 2157 -5.6420059E5
2158 2158 1.12590018E6
2158 2159 -5.6169959E5
2159 2158 -5.6420059E5
2159 2159 1.12590018E6
2159 2160 -5.6169959E5
2160 2159 -5.6420059E5
2160 2160 1.12590018E6
2160 2161 -5.6169959E5
2161 2160 -5.6420059E5
2161 2161 1.12590018E6
2161 2162 -5.6169959E5
2162 2161 -5.6420059E5
2162 2162 1.12590018E6
2162 2163 -5.6169959E5
2163 2162 -5.6420059E5
2163 2163 1.12590018E6
2163 2164 -5.6169959E5
2164 2163 -5.6420059E5
2164 2164 1.12590018E6
2164 2165 -5.6169959E5
2165 2164 -5.6420059E5
2165 2165 1.12590018E6
2165 2166 -5.6169959E5
2166 2165 -5.6420059E5
2166 2166 1.12590018E6
2166 2167 -5.6169959E5
2167 2166 -5.6420059E5
2167 2167 1.12590018E6
2167 2168 -5.6169959E5
2168 2167 -5.6420059E5
2168 2168 1.12590018E6
2168 2169 -5.6169959E5
2169 2168 -5.6420059E5
2169 2169 1.12590018E6
2169 2170 -5.6169959E5
2170 2169 -5.6420059E5
2170 2170 1.12590018E6
2170 2171 -5.6169959E5
2171 2170 -5.6420059E5
2171 2171 1.12590018E6
2171 2172 -5.6169959E5
2172 2171 -5.6420059E5
2172 2172 1.12590018E6
2172 2173 -5.6169959E5
2173 2172 -5.6420059E5
2173 2173 1.12590018E6
2173 2174 -5.6169959E5
2174 2173 -5.6420059E5
2174 2174 1.12590018E6
2174 2175 -5.6169959E5
2175 2174 -5.6420059E5
2175 2175 1.12590018E6
2175 2176 -5.6169959E5
2176 2175 -5.6420059E5
2176 2176 1.12590018E6
2176 2177 -5.6169959E5
2177 2176 -5.6420059E5
2177 2177 1.12590018E6
2177 2178 -5.6169959E5
2178 2177 -5.6420059E5
2178 2178 1.12590018E6
2178 2179 -5.6169959E5
2179 2178 -5.6420059E5
2179 2179 1.12590018E6
2179 2180 -5.6169959E5
2180 2179 -5.6420059E5
2180 2180 1.12590018E6
2180 2181 -5.6169959E5
2181 2180 -5.6420059E5
2181 2181 1.12590018E6
2181 2182 -5.6169959E5
2182 2181 -5.6420059E5
2182 2182 1.12590018E6
2182 2183 -5.6169959E5
2183 2182 -5.6420059E5
2183 2183 1.12590018E6
2183 2184 -5.6169959E5
2184 2183 -5.6420059E5
2184 2184 1.12590018E6
2184 2185 -5.6169959E5
2185 2184 -5.6420059E5
2185 2185 1.12590018E6
2185 2186 -5.6169959E5
2186 2185 -5.6420059E5
2186 2186 1.12590018E6
2186 2187 -5.6169959E5
2187 2186 -5.6420059E5
2187 2187 1.12590018E6
2187 2188 -5.6169959E5
2188 2187 -5.6420059E5
2188 2188 1.12590018E6
2188 2189 -5.6169959E5
2189 2188 -5.6420059E5
2189 2189 1.12590018E6
2189 2190 -5.6169959E5
2190 2189 -5.6420059E5
2190 2190 1.12590018E6
2190 2191 -5.6169959E5
2191 2190 -5.6420059E5
2191 2191 1.12590018E6
2191 2192 -5.6169959E5
2192 2191 -5.6420059E5
2192 2192 1.12590018E6
2192 2193 -5.6169959E5
2193 2192 -5.6420059E5
2193 2193 1.12590018E6
2193 2194 -5.6169959E5
2194 2193 -5.6420059E5
2194 2194 1.12590018E6
2194 2195 -5.6169959E5
2195 2194 -5.6420059E5
2195 2195 1.12590018E6
2195 2196 -5.6169959E5
2196 2195 -5.6420059E5
2196 2196 1.12590018E6
2196 2197 -5.6169959E5
2197 2196 -5.6420059E5
2197 2197 1.12590018E6
2197 2198 -5.6169959E5
2198 2197 -5.6420059E5
2198 2198 1.12590018E6
2198 2199 -5.6169959E5
2199 2198 -5.6420059E5
2199 2199 1.12590018E6
2199 2200 -5.6169959E5
2200 2199 -5.6420059E5
2200 2200 1.12590018E6
2200 2201 -5.6169959E5
2201 2200 -5.6420059E5
2201 2201 1.12590018E6
2201 2202 -5.6169959E5
2202 2201 -5.6420059E5
2202 2202 1.12590018E6
2202 2203 -5.6169959E5
2203 2202 -5.6420059E5
2203 2203 1.12590018E6
2203 2204 -5.6169959E5
2204 2203 -5.6420059E5
2204 2204 1.12590018E6
2204 2205 -5.6169959E5
2205 2204 -5.6420059E5
2205 2205 1.12590018E6
2205 2206 -5.6169959E5
2206 2205 -5.6420059E5
2206 2206 1.12590018E6
2206 2207 -5.6169959E5
2207 2206 -5.6420059E5
2207 2207 1.12590018E6
2207 2208 -5.6169959E5
2208 2207 -5.6420059E5
2208 2208 1.12590018E6
2208 2209 -5.6169959E5
2209 2208 -5.6420059E5
2209 2209 1.12590018E6
2209 2210 -5.6169959E5
2210 2209 -5.6420059E5
2210 2210 1.12590018E6
2210 2211 -5.6169959E5
2211 2210 -5.6420059E5
2211 2211 1.12590018E6
2211 2212 -5.6169959E5
2212 2211 -5.6420059E5
2212 2212 1.12590018E6
2212 2213 -5.6169959E5
2213 2212 -5.6420059E5
2213 2213 1.12590018E6
2213 2214 -5.6169959E5
2214 2213 -5.6420059E5
2214 2214 1.12590018E6
2214 2215 -5.6169959E5
2215 2214 -5.6420059E5
2215 2215 1.12590018E6
2215 2216 -5.6169959E5
2216 2215 -5.6420059E5
2216 2216 1.12590018E6
2216 2217 -5.6169959E5
2217 2216 -5.6420059E5
2217 2217 1.12590018E6
2217 2218 -5.6169959E5
2218 2217 -5.6420059E5
2218 2218 1.12590018E6
2218 2219 -5.6169959E5
2219 2218 -5.6420059E5
2219 2219 1.12590018E6
2219 2220 -5.6169959E5
2220 2219 -5.6420059E5
2220 2220 1.12590018E6
2220 2221 -5.6169959E5
2221 2220 -5.6420059E5
2221 2221 1.12590018E6
2221 2222 -5.6169959E5
2222 2221 -5.6420059E5
2222 2222 1.12590018E6
2222 2223 -5.6169959E5
2223 2222 -5.6420059E5
2223 2223 1.12590018E6
2223 2224 -5.6169959E5
2224 2223 -5.6420059E5
2224 2224 1.12590018E6
2224 2225 -5.6169959E5
2225 2224 -5.6420059E5
2225 2225 1.12590018E6
2225 2226 -5.6169959E5
2226 2225 -5.6420059E5
2226 2226 1.12590018E6
2226 2227 -5.6169959E5
2227 2226 -5.6420059E5
2227 2227 1.12590018E6
2227 2228 -5.6169959E5
2228 2227 -5.6420059E5
2228 2228 1.12590018E6
2228 2229 -5.6169959E5
2229 2228 -5.6420059E5
2229 2229 1.12590018E6
2229 2230 -5.6169959E5
2230 2229 -5.6420059E5
2230 2230 1.12590018E6
2230 2231 -5.6169959E5
2231 2230 -5.6420059E5
2231 2231 1.12590018E6
2231 2232 -5.6169959E5
2232 2231 -5.6420059E5
2232 2232 1.12590018E6
2232 2233 -5.6169959E5
2233 2232 -5.6420059E5
2233 2233 1.12590018E6
2233 2234 -5.6169959E5
2234 2233 -5.6420059E5
2234 2234 1.12590018E6
2234 2235 -5.6169959E5
2235 2234 -5.6420059E5
2235 2235 1.12590018E6
2235 2236 -5.6169959E5
2236 2235 -5.6420059E5
2236 2236 1.12590018E6
2236 2237 -5.6169959E5
2237 2236 -5.6420059E5
2237 2237 1.12590018E6
2237 2238 -5.6169959E5
2238 2237 -5.6420059E5
2238 2238 1.12590018E6
2238 2239 -5.6169959E5
2239 2238 -5.6420059E5
2239 2239 1.12590018E6
2239 2240 -5.6169959E5
2240 2239 -5.6420059E5
2240 2240 1.12590018E6
2240 2241 -5.6169959E5
2241 2240 -5.6420059E5
2241 2241 1.12590018E6
2241 2242 -5.6169959E5
2242 2241 -5.6420059E5
2242 2242 1.12590018E6
2242 2243 -5.6169959E5
2243 2242 -5.6420059E5
2243 2243 1.12590018E6
2243 2244 -5.6169959E5
2244 2243 -5.6420059E5
2244 2244 1.12590018E6
2244 2245 -5.6169959E5
2245 2244 -5.6420059E5
2245 2245 1.12590018E6
2245 2246 -5.6169959E5
2246 2245 -5.6420059E5
2246 2246 1.12590018E6
2246 2247 -5.6169959E5
2247 2246 -5.6420059E5
2247 2247 1.12590018E6
2247 2248 -5.6169959E5
2248 2247 -5.6420059E5
2248 2248 1.12590018E6
2248 2249 -5.6169959E5
2249 2248 -5.6420059E5
2249 2249 1.12590018E6
2249 2250 -5.6169959E5
2250 2249 -5.6420059E5
2250 2250 1.12590018E6
2250 2251 -5.6169959E5
2251 2250 -5.6420059E5
2251 2251 1.12590018E6
2251 2252 -5.6169959E5
2252 2251 -5.6420059E5
2252 2252 1.12590018E6
2252 2253 -5.6169959E5
2253 2252 -5.6420059E5
2253 2253 1.12590018E6
2253 2254 -5.6169959E5
2254 2253 -5.6420059E5
2254 2254 1.12590018E6
2254 2255 -5.6169959E5
2255 2254 -5.6420059E5
2255 2255 1.12590018E6
2255 2256 -5.6169959E5
2256 2255 -5.6420059E5
2256 2256 1.12590018E6
2256 2257 -5.6169959E5
2257 2256 -5.6420059E5
2257 2257 1.12590018E6
2257 2258 -5.6169959E5
2258 2257 -5.6420059E5
2258 2258 1.12590018E6
2258 2259 -5.6169959E5
2259 2258 -5.6420059E5
2259 2259 1.12590018E6
2259 2260 -5.6169959E5
2260 2259 -5.6420059E5
2260 2260 1.12590018E6
2260 2261 -5.6169959E5
2261 2260 -5.6420059E5
2261 2261 1.12590018E6
2261 2262 -5.6169959E5
2262 2261 -5.6420059E5
2262 2262 1.12590018E6
2262 2263 -5.6169959E5
2263 2262 -5.6420059E5
2263 2263 1.12590018E6
2263 2264 -5.6169959E5
2264 2263 -5.6420059E5
2264 2264 1.12590018E6
2264 2265 -5.6169959E5
2265 2264 -5.6420059E5
2265 2265 1.12590018E6
2265 2266 -5.6169959E5
2266 2265 -5.6420059E5
2266 2266 1.12590018E6
2266 2267 -5.6169959E5
2267 2266 -5.6420059E5
2267 2267 1.12590018E6
2267 2268 -5.6169959E5
2268 2267 -5.6420059E5
2268 2268 1.12590018E6
2268 2269 -5.6169959E5
2269 2268 -5.6420059E5
2269 2269 1.12590018E6
2269 2270 -5.6169959E5
2270 2269 -5.6420059E5
2270 2270 1.12590018E6
2270 2271 -5.6169959E5
2271 2270 -5.6420059E5
2271 2271 1.12590018E6
2271 2272 -5.6169959E5
2272 2271 -5.6420059E5
2272 2272 1.12590018E6
2272 2273 -5.6169959E5
2273 2272 -5.6420059E5
2273 2273 1.12590018E6
2273 2274 -5.6169959E5
2274 2273 -5.6420059E5
2274 2274 1.12590018E6
2274 2275 -5.6169959E5
2275 2274 -5.6420059E5
2275 2275 1.12590018E6
2275 2276 -5.6169959E5
2276 2275 -5.6420059E5
2276 2276 1.12590018E6
2276 2277 -5.6169959E5
2277 2276 -5.6420059E5
2277 2277 1.12590018E6
2277 2278 -5.6169959E5
2278 2277 -5.6420059E5
2278 2278 1.12590018E6
2278 2279 -5.6169959E5
2279 2278 -5.6420059E5
2279 2279 1.12590018E6
2279 2280 -5.6169959E5
2280 2279 -5.6420059E5
2280 2280 1.12590018E6
2280 2281 -5.6169959E5
2281 2280 -5.6420059E5
2281 2281 1.12590018E6
2281 2282 -5.6169959E5
2282 2281 -5.6420059E5
2282 2282 1.12590018E6
2282 2283 -5.6169959E5
2283 2282 -5.6420059E5
2283 2283 1.12590018E6
2283 2284 -5.6169959E5
2284 2283 -5.6420059E5
2284 2284 1.12590018E6
2284 2285 -5.6169959E5
2285 2284 -5.6420059E5
2285 2285 1.12590018E6
2285 2286 -5.6169959E5
2286 2285 -5.6420059E5
2286 2286 1.12590018E6
2286 2287 -5.6169959E5
2287 2286 -5.6420059E5
2287 2287 1.12590018E6
2287 2288 -5.6169959E5
2288 2287 -5.6420059E5
2288 2288 1.12590018E6
2288 2289 -5.6169959E5
2289 2288 -5.6420059E5
2289 2289 1.12590018E6
2289 2290 -5.6169959E5
2290 2289 -5.6420059E5
2290 2290 1.12590018E6
2290 2291 -5.6169959E5
2291 2290 -5.6420059E5
2291 2291 1.12590018E6
2291 2292 -5.6169959E5
2292 2291 -5.6420059E5
2292 2292 1.12590018E6
2292 2293 -5.6169959E5
2293 2292 -5.6420059E5
2293 2293 1.12590018E6
2293 2294 -5.6169959E5
2294 2293 -5.6420059E5
2294 2294 1.12590018E6
2294 2295 -5.6169959E5
2295 2294 -5.6420059E5
2295 2295 1.12590018E6
2295 2296 -5.6169959E5
2296 2295 -5.6420059E5
2296 2296 1.12590018E6
2296 2297 -5.6169959E5
2297 2296 -5.6420059E5
2297 2297 1.12590018E6
2297 2298 -5.6169959E5
2298 2297 -5.6420059E5
2298 2298 1.12590018E6
2298 2299 -5.6169959E5
2299 2298 -5.6420059E5
2299 2299 1.12590018E6
2299 2300 -5.6169959E5
2300 2299 -5.6420059E5
2300 2300 1.12590018E6
2300 2301 -5.6169959E5
2301 2300 -5.6420059E5
2301 2301 1.12590018E6
2301 2302 -5.6169959E5
2302 2301 -5.6420059E5
2302 2302 1.12590018E6
2302 2303 -5.6169959E5
2303 2302 -5.6420059E5
2303 2303 1.12590018E6
2303 2304 -5.6169959E5
2304 2303 -5.6420059E5
2304 2304 1.12590018E6
2304 2305 -5.6169959E5
2305 2304 -5.6420059E5
2305 2305 1.12590018E6
2305 2306 -5.6169959E5
2306 2305 -5.6420059E5
2306 2306 1.12590018E6
2306 2307 -5.6169959E5
2307 2306 -5.6420059E5
2307 2307 1.12590018E6
2307 2308 -5.6169959E5
2308 2307 -5.6420059E5
2308 2308 1.12590018E6
2308 2309 -5.6169959E5
2309 2308 -5.6420059E5
2309 2309 1.12590018E6
2309 2310 -5.6169959E5
2310 2309 -5.6420059E5
2310 2310 1.12590018E6
2310 2311 -5.6169959E5
2311 2310 -5.6420059E5
2311 2311 1.12590018E6
2311 2312 -5.6169959E5
2312 2311 -5.6420059E5
2312 2312 1.12590018E6
2312 2313 -5.6169959E5
2313 2312 -5.6420059E5
2313 2313 1.12590018E6
2313 2314 -5.6169959E5
2314 2313 -5.6420059E5
2314 2314 1.12590018E6
2314 2315 -5.6169959E5
2315 2314 -5.6420059E5
2315 2315 1.12590018E6
2315 2316 -5.6169959E5
2316 2315 -5.6420059E5
2316 2316 1.12590018E6
2316 2317 -5.6169959E5
2317 2316 -5.6420059E5
2317 2317 1.12590018E6
2317 2318 -5.6169959E5
2318 2317 -5.6420059E5
2318 2318 1.12590018E6
2318 2319 -5.6169959E5
2319 2318 -5.6420059E5
2319 2319 1.12590018E6
2319 2320 -5.6169959E5
2320 2319 -5.6420059E5
2320 2320 1.12590018E6
2320 2321 -5.6169959E5
2321 2320 -5.6420059E5
2321 2321 1.12590018E6
2321 2322 -5.6169959E5
2322 2321 -5.6420059E5
2322 2322 1.12590018E6
2322 2323 -5.6169959E5
2323 2322 -5.6420059E5
2323 2323 1.12590018E6
2323 2324 -5.6169959E5
2324 2323 -5.6420059E5
2324 2324 1.12590018E6
2324 2325 -5.6169959E5
2325 2324 -5.6420059E5
2325 2325 1.12590018E6
2325 2326 -5.6169959E5
2326 2325 -5.6420059E5
2326 2326 1.12590018E6
2326 2327 -5.6169959E5
2327 2326 -5.6420059E5
2327 2327 1.12590018E6
2327 2328 -5.6169959E5
2328 2327 -5.6420059E5
2328 2328 1.12590018E6
2328 2329 -5.6169959E5
2329 2328 -5.6420059E5
2329 2329 1.12590018E6
2329 2330 -5.6169959E5
2330 2329 -5.6420059E5
2330 2330 1.12590018E6
2330 2331 -5.6169959E5
2331 2330 -5.6420059E5
2331 2331 1.12590018E6
2331 2332 -5.6169959E5
2332 2331 -5.6420059E5
2332 2332 1.12590018E6
2332 2333 -5.6169959E5
2333 2332 -5.6420059E5
2333 2333 1.12590018E6
2333 2334 -5.6169959E5
2334 2333 -5.6420059E5
2334 2334 1.12590018E6
2334 2335 -5.6169959E5
2335 2334 -5.6420059E5
2335 2335 1.12590018E6
2335 2336 -5.6169959E5
2336 2335 -5.6420059E5
2336 2336 1.12590018E6
2336 2337 -5.6169959E5
2337 2336 -5.6420059E5
2337 2337 1.12590018E6
2337 2338 -5.6169959E5
2338 2337 -5.6420059E5
2338 2338 1.12590018E6
2338 2339 -5.6169959E5
2339 2338 -5.6420059E5
2339 2339 1.12590018E6
2339 2340 -5.6169959E5
2340 2339 -5.6420059E5
2340 2340 1.12590018E6
2340 2341 -5.6169959E5
2341 2340 -5.6420059E5
2341 2341 1.12590018E6
2341 2342 -5.6169959E5
2342 2341 -5.6420059E5
2342 2342 1.12590018E6
2342 2343 -5.6169959E5
2343 2342 -5.6420059E5
2343 2343 1.12590018E6
2343 2344 -5.6169959E5
2344 2343 -5.6420059E5
2344 2344 1.12590018E6
2344 2345 -5.6169959E5
2345 2344 -5.6420059E5
2345 2345 1.12590018E6
2345 2346 -5.6169959E5
2346 2345 -5.6420059E5
2346 2346 1.12590018E6
2346 2347 -5.6169959E5
2347 2346 -5.6420059E5
2347 2347 1.12590018E6
2347 2348 -5.6169959E5
2348 2347 -5.6420059E5
2348 2348 1.12590018E6
2348 2349 -5.6169959E5
2349 2348 -5.6420059E5
2349 2349 1.12590018E6
2349 2350 -5.6169959E5
2350 2349 -5.6420059E5
2350 2350 1.12590018E6
2350 2351 -5.6169959E5
2351 2350 -5.6420059E5
2351 2351 1.12590018E6
2351 2352 -5.6169959E5
2352 2351 -5.6420059E5
2352 2352 1.12590018E6
2352 2353 -5.6169959E5
2353 2352 -5.6420059E5
2353 2353 1.12590018E6
2353 2354 -5.6169959E5
2354 2353 -5.6420059E5
2354 2354 1.12590018E6
2354 2355 -5.6169959E5
2355 2354 -5.6420059E5
2355 2355 1.12590018E6
2355 2356 -5.6169959E5
2356 2355 -5.6420059E5
2356 2356 1.12590018E6
2356 2357 -5.6169959E5
2357 2356 -5.6420059E5
2357 2357 1.12590018E6
2357 2358 -5.6169959E5
2358 2357 -5.6420059E5
2358 2358 1.12590018E6
2358 2359 -5.6169959E5
2359 2358 -5.6420059E5
2359 2359 1.12590018E6
2359 2360 -5.6169959E5
2360 2359 -5.6420059E5
2360 2360 1.12590018E6
2360 2361 -5.6169959E5
2361 2360 -5.6420059E5
2361 2361 1.12590018E6
2361 2362 -5.6169959E5
2362 2361 -5.6420059E5
2362 2362 1.12590018E6
2362 2363 -5.6169959E5
2363 2362 -5.6420059E5
2363 2363 1.12590018E6
2363 2364 -5.6169959E5
2364 2363 -5.6420059E5
2364 2364 1.12590018E6
2364 2365 -5.6169959E5
2365 2364 -5.6420059E5
2365 2365 1.12590018E6
2365 2366 -5.6169959E5
2366 2365 -5.6420059E5
2366 2366 1.12590018E6
2366 2367 -5.6169959E5
2367 2366 -5.6420059E5
2367 2367 1.12590018E6
2367 2368 -5.6169959E5
2368 2367 -5.6420059E5
2368 2368 1.12590018E6
2368 2369 -5.6169959E5
2369 2368 -5.6420059E5
2369 2369 1.12590018E6
2369 2370 -5.6169959E5
2370 2369 -5.6420059E5
2370 2370 1.12590018E6
2370 2371 -5.6169959E5
2371 2370 -5.6420059E5
2371 2371 1.12590018E6
2371 2372 -5.6169959E5
2372 2371 -5.6420059E5
2372 2372 1.12590018E6
2372 2373 -5.6169959E5
2373 2372 -5.6420059E5
2373 2373 1.12590018E6
2373 2374 -5.6169959E5
2374 2373 -5.6420059E5
2374 2374 1.12590018E6
2374 2375 -5.6169959E5
2375 2374 -5.6420059E5
2375 2375 1.12590018E6
2375 2376 -5.6169959E5
2376 2375 -5.6420059E5
2376 2376 1.12590018E6
2376 2377 -5.6169959E5
2377 2376 -5.6420059E5
2377 2377 1.12590018E6
2377 2378 -5.6169959E5
2378 2377 -5.6420059E5
2378 2378 1.12590018E6
2378 2379 -5.6169959E5
2379 2378 -5.6420059E5
2379 2379 1.12590018E6
2379 2380 -5.6169959E5
2380 2379 -5.6420059E5
2380 2380 1.12590018E6
2380 2381 -5.6169959E5
2381 2380 -5.6420059E5
2381 2381 1.12590018E6
2381 2382 -5.6169959E5
2382 2381 -5.6420059E5
2382 2382 1.12590018E6
2382 2383 -5.6169959E5
2383 2382 -5.6420059E5
2383 2383 1.12590018E6
2383 2384 -5.6169959E5
2384 2383 -5.6420059E5
2384 2384 1.12590018E6
2384 2385 -5.6169959E5
2385 2384 -5.6420059E5
2385 2385 1.12590018E6
2385 2386 -5.6169959E5
2386 2385 -5.6420059E5
2386 2386 1.12590018E6
2386 2387 -5.6169959E5
2387 2386 -5.6420059E5
2387 2387 1.12590018E6
2387 2388 -5.6169959E5
2388 2387 -5.6420059E5
2388 2388 1.12590018E6
2388 2389 -5.6169959E5
2389 2388 -5.6420059E5
2389 2389 1.12590018E6
2389 2390 -5.6169959E5
2390 2389 -5.6420059E5
2390 2390 1.12590018E6
2390 2391 -5.6169959E5
2391 2390 -5.6420059E5
2391 2391 1.12590018E6
2391 2392 -5.6169959E5
2392 2391 -5.6420059E5
2392 2392 1.12590018E6
2392 2393 -5.6169959E5
2393 2392 -5.6420059E5
2393 2393 1.12590018E6
2393 2394 -5.6169959E5
2394 2393 -5.6420059E5
2394 2394 1.12590018E6
2394 2395 -5.6169959E5
2395 2394 -5.6420059E5
2395 2395 1.12590018E6
2395 2396 -5.6169959E5
2396 2395 -5.6420059E5
2396 2396 1.12590018E6
2396 2397 -5.6169959E5
2397 2396 -5.6420059E5
2397 2397 1.12590018E6
2397 2398 -5.6169959E5
2398 2397 -5.6420059E5
2398 2398 1.12590018E6
2398 2399 -5.6169959E5
2399 2398 -5.6420059E5
2399 2399 1.12590018E6
2399 2400 -5.6169959E5
2400 2399 -5.6420059E5
2400 2400 1.12590018E6
2400 2401 -5.6169959E5
2401 2400 -5.6420059E5
2401 2401 1.12590018E6
2401 2402 -5.6169959E5
2402 2401 -5.6420059E5
2402 2402 1.12590018E6
2402 2403 -5.6169959E5
2403 2402 -5.6420059E5
2403 2403 1.12590018E6
2403 2404 -5.6169959E5
2404 2403 -5.6420059E5
2404 2404 1.12590018E6
2404 2405 -5.6169959E5
2405 2404 -5.6420059E5
2405 2405 1.12590018E6
2405 2406 -5.6169959E5
2406 2405 -5.6420059E5
2406 2406 1.12590018E6
2406 2407 -5.6169959E5
2407 2406 -5.6420059E5
2407 2407 1.12590018E6
2407 2408 -5.6169959E5
2408 2407 -5.6420059E5
2408 2408 1.12590018E6
2408 2409 -5.6169959E5
2409 2408 -5.6420059E5
2409 2409 1.12590018E6
2409 2410 -5.6169959E5
2410 2409 -5.6420059E5
2410 2410 1.12590018E6
2410 2411 -5.6169959E5
2411 2410 -5.6420059E5
2411 2411 1.12590018E6
2411 2412 -5.6169959E5
2412 2411 -5.6420059E5
2412 2412 1.12590018E6
2412 2413 -5.6169959E5
2413 2412 -5.6420059E5
2413 2413 1.12590018E6
2413 2414 -5.6169959E5
2414 2413 -5.6420059E5
2414 2414 1.12590018E6
2414 2415 -5.6169959E5
2415 2414 -5.6420059E5
2415 2415 1.12590018E6
2415 2416 -5.6169959E5
2416 2415 -5.6420059E5
2416 2416 1.12590018E6
2416 2417 -5.6169959E5
2417 2416 -5.6420059E5
2417 2417 1.12590018E6
2417 2418 -5.6169959E5
2418 2417 -5.6420059E5
2418 2418 1.12590018E6
2418 2419 -5.6169959E5
2419 2418 -5.6420059E5
2419 2419 1.12590018E6
2419 2420 -5.6169959E5
2420 2419 -5.6420059E5
2420 2420 1.12590018E6
2420 2421 -5.6169959E5
2421 2420 -5.6420059E5
2421 2421 1.12590018E6
2421 2422 -5.6169959E5
2422 2421 -5.6420059E5
2422 2422 1.12590018E6
2422 2423 -5.6169959E5
2423 2422 -5.6420059E5
2423 2423 1.12590018E6
2423 2424 -5.6169959E5
2424 2423 -5.6420059E5
2424 2424 1.12590018E6
2424 2425 -5.6169959E5
2425 2424 -5.6420059E5
2425 2425 1.12590018E6
2425 2426 -5.6169959E5
2426 2425 -5.6420059E5
2426 2426 1.12590018E6
2426 2427 -5.6169959E5
2427 2426 -5.6420059E5
2427 2427 1.12590018E6
2427 2428 -5.6169959E5
2428 2427 -5.6420059E5
2428 2428 1.12590018E6
2428 2429 -5.6169959E5
2429 2428 -5.6420059E5
2429 2429 1.12590018E6
2429 2430 -5.6169959E5
2430 2429 -5.6420059E5
2430 2430 1.12590018E6
2430 2431 -5.6169959E5
2431 2430 -5.6420059E5
2431 2431 1.12590018E6
2431 2432 -5.6169959E5
2432 2431 -5.6420059E5
2432 2432 1.12590018E6
2432 2433 -5.6169959E5
2433 2432 -5.6420059E5
2433 2433 1.12590018E6
2433 2434 -5.6169959E5
2434 2433 -5.6420059E5
2434 2434 1.12590018E6
2434 2435 -5.6169959E5
2435 2434 -5.6420059E5
2435 2435 1.12590018E6
2435 2436 -5.6169959E5
2436 2435 -5.6420059E5
2436 2436 1.12590018E6
2436 2437 -5.6169959E5
2437 2436 -5.6420059E5
2437 2437 1.12590018E6
2437 2438 -5.6169959E5
2438 2437 -5.6420059E5
2438 2438 1.12590018E6
2438 2439 -5.6169959E5
2439 2438 -5.6420059E5
2439 2439 1.12590018E6
2439 2440 -5.6169959E5
2440 2439 -5.6420059E5
2440 2440 1.12590018E6
2440 2441 -5.6169959E5
2441 2440 -5.6420059E5
2441 2441 1.12590018E6
2441 2442 -5.6169959E5
2442 2441 -5.6420059E5
2442 2442 1.12590018E6
2442 2443 -5.6169959E5
2443 2442 -5.6420059E5
2443 2443 1.12590018E6
2443 2444 -5.6169959E5
2444 2443 -5.6420059E5
2444 2444 1.12590018E6
2444 2445 -5.6169959E5
2445 2444 -5.6420059E5
2445 2445 1.12590018E6
2445 2446 -5.6169959E5
2446 2445 -5.6420059E5
2446 2446 1.12590018E6
2446 2447 -5.6169959E5
2447 2446 -5.6420059E5
2447 2447 1.12590018E6
2447 2448 -5.6169959E5
2448 2447 -5.6420059E5
2448 2448 1.12590018E6
2448 2449 -5.6169959E5
2449 2448 -5.6420059E5
2449 2449 1.12590018E6
2449 2450 -5.6169959E5
2450 2449 -5.6420059E5
2450 2450 1.12590018E6
2450 2451 -5.6169959E5
2451 2450 -5.6420059E5
2451 2451 1.12590018E6
2451 2452 -5.6169959E5
2452 2451 -5.6420059E5
2452 2452 1.12590018E6
2452 2453 -5.6169959E5
2453 2452 -5.6420059E5
2453 2453 1.12590018E6
2453 2454 -5.6169959E5
2454 2453 -5.6420059E5
2454 2454 1.12590018E6
2454 2455 -5.6169959E5
2455 2454 -5.6420059E5
2455 2455 1.12590018E6
2455 2456 -5.6169959E5
2456 2455 -5.6420059E5
2456 2456 1.12590018E6
2456 2457 -5.6169959E5
2457 2456 -5.6420059E5
2457 2457 1.12590018E6
2457 2458 -5.6169959E5
2458 2457 -5.6420059E5
2458 2458 1.12590018E6
2458 2459 -5.6169959E5
2459 2458 -5.6420059E5
2459 2459 1.12590018E6
2459 2460 -5.6169959E5
2460 2459 -5.6420059E5
2460 2460 1.12590018E6
2460 2461 -5.6169959E5
2461 2460 -5.6420059E5
2461 2461 1.12590018E6
2461 2462 -5.6169959E5
2462 2461 -5.6420059E5
2462 2462 1.12590018E6
2462 2463 -5.6169959E5
2463 2462 -5.6420059E5
2463 2463 1.12590018E6
2463 2464 -5.6169959E5
2464 2463 -5.6420059E5
2464 2464 1.12590018E6
2464 2465 -5.6169959E5
2465 2464 -5.6420059E5
2465 2465 1.12590018E6
2465 2466 -5.6169959E5
2466 2465 -5.6420059E5
2466 2466 1.12590018E6
2466 2467 -5.6169959E5
2467 2466 -5.6420059E5
2467 2467 1.12590018E6
2467 2468 -5.6169959E5
2468 2467 -5.6420059E5
2468 2468 1.12590018E6
2468 2469 -5.6169959E5
2469 2468 -5.6420059E5
2469 2469 1.12590018E6
2469 2470 -5.6169959E5
2470 2469 -5.6420059E5
2470 2470 1.12590018E6
2470 2471 -5.6169959E5
2471 2470 -5.6420059E5
2471 2471 1.12590018E6
2471 2472 -5.6169959E5
2472 2471 -5.6420059E5
2472 2472 1.12590018E6
2472 2473 -5.6169959E5
2473 2472 -5.6420059E5
2473 2473 1.12590018E6
2473 2474 -5.6169959E5
2474 2473 -5.6420059E5
2474 2474 1.12590018E6
2474 2475 -5.6169959E5
2475 2474 -5.6420059E5
2475 2475 1.12590018E6
2475 2476 -5.6169959E5
2476 2475 -5.6420059E5
2476 2476 1.12590018E6
2476 2477 -5.6169959E5
2477 2476 -5.6420059E5
2477 2477 1.12590018E6
2477 2478 -5.6169959E5
2478 2477 -5.6420059E5
2478 2478 1.12590018E6
2478 2479 -5.6169959E5
2479 2478 -5.6420059E5
2479 2479 1.12590018E6
2479 2480 -5.6169959E5
2480 2479 -5.6420059E5
2480 2480 1.12590018E6
2480 2481 -5.6169959E5
2481 2480 -5.6420059E5
2481 2481 1.12590018E6
2481 2482 -5.6169959E5
2482 2481 -5.6420059E5
2482 2482 1.12590018E6
2482 2483 -5.6169959E5
2483 2482 -5.6420059E5
2483 2483 1.12590018E6
2483 2484 -5.6169959E5
2484 2483 -5.6420059E5
2484 2484 1.12590018E6
2484 2485 -5.6169959E5
2485 2484 -5.6420059E5
2485 2485 1.12590018E6
2485 2486 -5.6169959E5
2486 2485 -5.6420059E5
2486 2486 1.12590018E6
2486 2487 -5.6169959E5
2487 2486 -5.6420059E5
2487 2487 1.12590018E6
2487 2488 -5.6169959E5
2488 2487 -5.6420059E5
2488 2488 1.12590018E6
2488 2489 -5.6169959E5
2489 2488 -5.6420059E5
2489 2489 1.12590018E6
2489 2490 -5.6169959E5
2490 2489 -5.6420059E5
2490 2490 1.12590018E6
2490 2491 -5.6169959E5
2491 2490 -5.6420059E5
2491 2491 1.12590018E6
2491 2492 -5.6169959E5
2492 2491 -5.6420059E5
2492 2492 1.12590018E6
2492 2493 -5.6169959E5
2493 2492 -5.6420059E5
2493 2493 1.12590018E6
2493 2494 -5.6169959E5
2494 2493 -5.6420059E5
2494 2494 1.12590018E6
2494 2495 -5.6169959E5
2495 2494 -5.6420059E5
2495 2495 1.12590018E6
2495 2496 -5.6169959E5
2496 2495 -5.6420059E5
2496 2496 1.12590018E6
2496 2497 -5.6169959E5
2497 2496 -5.6420059E5
2497 2497 1.12590018E6
2497 2498 -5.6169959E5
2498 2497 -5.6420059E5
2498 2498 1.12590018E6
2498 2499 -5.6169959E5
2499 2498 -5.6420059E5
2499 2499 1.12590018E6
2499 2500 -5.6169959E5
2500 2499 -5.6420059E5
2500 2500 1.12590018E6
