%%MatrixMarket matrix coordinate real general
% 1D convection-diffusion (-eps*u'' + beta*u' = f), central FD, n=500, eps=0.05, beta=1.0, kappa~=9136
500 500 1498
1 1 2.5100100000000002E4
1 2 -1.2299550000000001E4
2 1 -1.2800550000000001E4
2 2 2.5100100000000002E4
2 3 -1.2299550000000001E4
3 2 -1.2800550000000001E4
3 3 2.5100100000000002E4
3 4 -1.2299550000000001E4
4 3 -1.2800550000000001E4
4 4 2.5100100000000002E4
4 5 -1.2299550000000001E4
5 4 -1.2800550000000001E4
5 5 2.5100100000000002E4
5 6 -1.2299550000000001E4
6 5 -1.2800550000000001E4
6 6 2.5100100000000002E4
6 7 -1.2299550000000001E4
7 6 -1.2800550000000001E4
7 7 2.5100100000000002E4
7 8 -1.2299550000000001E4
8 7 -1.2800550000000001E4
8 8 2.5100100000000002E4
8 9 -1.2299550000000001E4
9 8 -1.2800550000000001E4
9 9 2.5100100000000002E4
9 10 -1.2299550000000001E4
10 9 -1.2800550000000001E4
10 10 2.5100100000000002E4
10 11 -1.2299550000000001E4
11 10 -1.2800550000000001E4
11 11 2.5100100000000002E4
11 12 -1.2299550000000001E4
12 11 -1.2800550000000001E4
12 12 2.5100100000000002E4
12 13 -1.2299550000000001E4
13 12 -1.2800550000000001E4
13 13 2.5100100000000002E4
13 14 -1.2299550000000001E4
14 13 -1.2800550000000001E4
14 14 2.5100100000000002E4
14 15 -1.2299550000000001E4
15 14 -1.2800550000000001E4
15 15 2.5100100000000002E4
15 16 -1.2299550000000001E4
16 15 -1.2800550000000001E4
16 16 2.5100100000000002E4
16 17 -1.2299550000000001E4
17 16 -1.2800550000000001E4
17 17 2.5100100000000002E4
17 18 -1.2299550000000001E4
18 17 -1.2800550000000001E4
18 18 2.5100100000000002E4
18 19 -1.2299550000000001E4
19 18 -1.2800550000000001E4
19 19 2.5100100000000002E4
19 20 -1.2299550000000001E4
20 19 -1.2800550000000001E4
20 20 2.5100100000000002E4
20 21 -1.2299550000000001E4
21 20 -1.2800550000000001E4
21 21 2.5100100000000002E4
21 22 -1.2299550000000001E4
22 21 -1.2800550000000001E4
22 22 2.5100100000000002E4
22 23 -1.2299550000000001E4
23 22 -1.2800550000000001E4
23 23 2.5100100000000002E4
23 24 -1.2299550000000001E4
24 23 -1.2800550000000001E4
24 24 2.5100100000000002E4
24 25 -1.2299550000000001E4
25 24 -1.2800550000000001E4
25 25 2.5100100000000002E4
25 26 -1.2299550000000001E4
26 25 -1.2800550000000001E4
26 26 2.5100100000000002E4
26 27 -1.2299550000000001E4
27 26 -1.2800550000000001E4
27 27 2.5100100000000002E4
27 28 -1.2299550000000001E4
28 27 -1.2800550000000001E4
28 28 2.5100100000000002E4
28 29 -1.2299550000000001E4
29 28 -1.2800550000000001E4
29 29 2.5100100000000002E4
29 30 -1.2299550000000001E4
30 29 -1.2800550000000001E4
30 30 2.5100100000000002E4
30 31 -1.2299550000000001E4
31 30 -1.2800550000000001E4
31 31 2.5100100000000002E4
31 32 -1.2299550000000001E4
32 31 -1.2800550000000001E4
32 32 2.5100100000000002E4
32 33 -1.2299550000000001E4
33 32 -1.2800550000000001E4
33 33 2.5100100000000002E4
33 34 -1.2299550000000001E4
34 33 -1.2800550000000001E4
34 34 2.5100100000000002E4
34 35 -1.2299550000000001E4
35 34 -1.2800550000000001E4
35 35 2.5100100000000002E4
35 36 -1.2299550000000001E4
36 35 -1.2800550000000001E4
36 36 2.5100100000000002E4
36 37 -1.2299550000000001E4
37 36 -1.2800550000000001E4
37 37 2.5100100000000002E4
37 38 -1.2299550000000001E4
38 37 -1.2800550000000001E4
38 38 2.5100100000000002E4
38 39 -1.2299550000000001E4
39 38 -1.2800550000000001E4
39 39 2.5100100000000002E4
39 40 -1.2299550000000001E4
40 39 -1.2800550000000001E4
40 40 2.5100100000000002E4
40 41 -1.2299550000000001E4
41 40 -1.2800550000000001E4
41 41 2.5100100000000002E4
41 42 -1.2299550000000001E4
42 41 -1.2800550000000001E4
42 42 2.5100100000000002E4
42 43 -1.2299550000000001E4
43 42 -1.2800550000000001E4
43 43 2.5100100000000002E4
43 44 -1.2299550000000001E4
44 43 -1.2800550000000001E4
44 44 2.5100100000000002E4
44 45 -1.2299550000000001E4
45 44 -1.2800550000000001E4
45 45 2.5100100000000002E4
45 46 -1.2299550000000001E4
46 45 -1.2800550000000001E4
46 46 2.5100100000000002E4
46 47 -1.2299550000000001E4
47 46 -1.2800550000000001E4
47 47 2.5100100000000002E4
47 48 -1.2299550000000001E4
48 47 -1.2800550000000001E4
48 48 2.5100100000000002E4
48 49 -1.2299550000000001E4
49 48 -1.2800550000000001E4
49 49 2.5100100000000002E4
49 50 -1.2299550000000001E4
50 49 -1.2800550000000001E4
50 50 2.5100100000000002E4
50 51 -1.2299550000000001E4
51 50 -1.2800550000000001E4
51 51 2.5100100000000002E4
51 52 -1.2299550000000001E4
52 51 -1.2800550000000001E4
52 52 2.5100100000000002E4
52 53 -1.2299550000000001E4
53 52 -1.2800550000000001E4
53 53 2.5100100000000002E4
53 54 -1.2299550000000001E4
54 53 -1.2800550000000001E4
54 54 2.5100100000000002E4
54 55 -1.2299550000000001E4
55 54 -1.2800550000000001E4
55 55 2.5100100000000002E4
55 56 -1.2299550000000001E4
56 55 -1.2800550000000001E4
56 56 2.5100100000000002E4
56 57 -1.2299550000000001E4
57 56 -1.2800550000000001E4
57 57 2.5100100000000002E4
57 58 -1.2299550000000001E4
58 57 -1.2800550000000001E4
58 58 2.5100100000000002E4
58 59 -1.2299550000000001E4
59 58 -1.2800550000000001E4
59 59 2.5100100000000002E4
59 60 -1.2299550000000001E4
60 59 -1.2800550000000001E4
60 60 2.5100100000000002E4
60 61 -1.2299550000000001E4
61 60 -1.2800550000000001E4
61 61 2.5100100000000002E4
61 62 -1.2299550000000001E4
62 61 -1.2800550000000001E4
62 62 2.5100100000000002E4
62 63 -1.2299550000000001E4
63 62 -1.2800550000000001E4
63 63 2.5100100000000002E4
63 64 -1.2299550000000001E4
64 63 -1.2800550000000001E4
64 64 2.5100100000000002E4
64 65 -1.2299550000000001E4
65 64 -1.2800550000000001E4
65 65 2.5100100000000002E4
65 66 -1.2299550000000001E4
66 65 -1.2800550000000001E4
66 66 2.5100100000000002E4
66 67 -1.2299550000000001E4
67 66 -1.2800550000000001E4
67 67 2.5100100000000002E4
67 68 -1.2299550000000001E4
68 67 -1.2800550000000001E4
68 68 2.5100100000000002E4
68 69 -1.2299550000000001E4
69 68 -1.2800550000000001E4
69 69 2.5100100000000002E4
69 70 -1.2299550000000001E4
70 69 -1.2800550000000001E4
70 70 2.5100100000000002E4
70 71 -1.2299550000000001E4
71 70 -1.2800550000000001E4
71 71 2.5100100000000002E4
71 72 -1.2299550000000001E4
72 71 -1.2800550000000001E4
72 72 2.5100100000000002E4
72 73 -1.2299550000000001E4
73 72 -1.2800550000000001E4
73 73 2.5100100000000002E4
73 74 -1.2299550000000001E4
74 73 -1.2800550000000001E4
74 74 2.5100100000000002E4
74 75 -1.2299550000000001E4
75 74 -1.2800550000000001E4
75 75 2.5100100000000002E4
75 76 -1.2299550000000001E4
76 75 -1.2800550000000001E4
76 76 2.5100100000000002E4
76 77 -1.2299550000000001E4
77 76 -1.2800550000000001E4
77 77 2.5100100000000002E4
77 78 -1.2299550000000001E4
78 77 -1.2800550000000001E4
78 78 2.5100100000000002E4
78 79 -1.2299550000000001E4
79 78 -1.2800550000000001E4
79 79 2.5100100000000002E4
79 80 -1.2299550000000001E4
80 79 -1.2800550000000001E4
80 80 2.5100100000000002E4
80 81 -1.2299550000000001E4
81 80 -1.2800550000000001E4
81 81 2.5100100000000002E4
81 82 -1.2299550000000001E4
82 81 -1.2800550000000001E4
82 82 2.5100100000000002E4
82 83 -1.2299550000000001E4
83 82 -1.2800550000000001E4
83 83 2.5100100000000002E4
83 84 -1.2299550000000001E4
84 83 -1.2800550000000001E4
84 84 2.5100100000000002E4
84 85 -1.2299550000000001E4
85 84 -1.2800550000000001E4
85 85 2.5100100000000002E4
85 86 -1.2299550000000001E4
86 85 -1.2800550000000001E4
86 86 2.5100100000000002E4
86 87 -1.2299550000000001E4
87 86 -1.2800550000000001E4
87 87 2.5100100000000002E4
87 88 -1.2299550000000001E4
88 87 -1.2800550000000001E4
88 88 2.5100100000000002E4
88 89 -1.2299550000000001E4
89 88 -1.2800550000000001E4
89 89 2.5100100000000002E4
89 90 -1.2299550000000001E4
90 89 -1.2800550000000001E4
90 90 2.5100100000000002E4
90 91 -1.2299550000000001E4
91 90 -1.2800550000000001E4
91 91 2.5100100000000002E4
91 92 -1.2299550000000001E4
92 91 -1.2800550000000001E4
92 92 2.5100100000000002E4
92 93 -1.2299550000000001E4
93 92 -1.2800550000000001E4
93 93 2.5100100000000002E4
93 94 -1.2299550000000001E4
94 93 -1.2800550000000001E4
94 94 2.5100100000000002E4
94 95 -1.2299550000000001E4
95 94 -1.2800550000000001E4
95 95 2.5100100000000002E4
95 96 -1.2299550000000001E4
96 95 -1.2800550000000001E4
96 96 2.5100100000000002E4
96 97 -1.2299550000000001E4
97 96 -1.2800550000000001E4
97 97 2.5100100000000002E4
97 98 -1.2299550000000001E4
98 97 -1.2800550000000001E4
98 98 2.5100100000000002E4
98 99 -1.2299550000000001E4
99 98 -1.2800550000000001E4
99 99 2.5100100000000002E4
99 100 -1.2299550000000001E4
100 99 -1.2800550000000001E4
100 100 2.5100100000000002E4
100 101 -1.2299550000000001E4
101 100 -1.2800550000000001E4
101 101 2.5100100000000002E4
101 102 -1.2299550000000001E4
102 101 -1.2800550000000001E4
102 102 2.5100100000000002E4
102 103 -1.2299550000000001E4
103 102 -1.2800550000000001E4
103 103 2.5100100000000002E4
103 104 -1.2299550000000001E4
104 103 -1.2800550000000001E4
104 104 2.5100100000000002E4
104 105 -1.2299550000000001E4
105 104 -1.2800550000000001E4
105 105 2.5100100000000002E4
105 106 -1.2299550000000001E4
106 105 -1.2800550000000001E4
106 106 2.5100100000000002E4
106 107 -1.2299550000000001E4
107 106 -1.2800550000000001E4
107 107 2.5100100000000002E4
107 108 -1.2299550000000001E4
108 107 -1.2800550000000001E4
108 108 2.5100100000000002E4
108 109 -1.2299550000000001E4
109 108 -1.2800550000000001E4
109 109 2.5100100000000002E4
109 110 -1.2299550000000001E4
110 109 -1.2800550000000001E4
110 110 2.5100100000000002E4
110 111 -1.2299550000000001E4
111 110 -1.2800550000000001E4
111 111 2.5100100000000002E4
111 112 -1.2299550000000001E4
112 111 -1.2800550000000001E4
112 112 2.5100100000000002E4
112 113 -1.2299550000000001E4
113 112 -1.2800550000000001E4
113 113 2.5100100000000002E4
113 114 -1.2299550000000001E4
114 113 -1.2800550000000001E4
114 114 2.5100100000000002E4
114 115 -1.2299550000000001E4
115 114 -1.2800550000000001E4
115 115 2.5100100000000002E4
115 116 -1.2299550000000001E4
116 115 -1.2800550000000001E4
116 116 2.5100100000000002E4
116 117 -1.2299550000000001E4
117 116 -1.2800550000000001E4
117 117 2.5100100000000002E4
117 118 -1.2299550000000001E4
118 117 -1.2800550000000001E4
118 118 2.5100100000000002E4
118 119 -1.2299550000000001E4
119 118 -1.2800550000000001E4
119 119 2.5100100000000002E4
119 120 -1.2299550000000001E4
120 119 -1.2800550000000001E4
120 120 2.5100100000000002E4
120 121 -1.2299550000000001E4
121 120 -1.2800550000000001E4
121 121 2.5100100000000002E4
121 122 -1.2299550000000001E4
122 121 -1.2800550000000001E4
122 122 2.5100100000000002E4
122 123 -1.2299550000000001E4
123 122 -1.2800550000000001E4
123 123 2.5100100000000002E4
123 124 -1.2299550000000001E4
124 123 -1.2800550000000001E4
124 124 2.5100100000000002E4
124 125 -1.2299550000000001E4
125 124 -1.2800550000000001E4
125 125 2.5100100000000002E4
125 126 -1.2299550000000001E4
126 125 -1.2800550000000001E4
126 126 2.5100100000000002E4
126 127 -1.2299550000000001E4
127 126 -1.2800550000000001E4
127 127 2.5100100000000002E4
127 128 -1.2299550000000001E4
128 127 -1.2800550000000001E4
128 128 2.5100100000000002E4
128 129 -1.2299550000000001E4
129 128 -1.2800550000000001E4
129 129 2.5100100000000002E4
129 130 -1.2299550000000001E4
130 129 -1.2800550000000001E4
130 130 2.5100100000000002E4
130 131 -1.2299550000000001E4
131 130 -1.2800550000000001E4
131 131 2.5100100000000002E4
131 132 -1.2299550000000001E4
132 131 -1.2800550000000001E4
132 132 2.5100100000000002E4
132 133 -1.2299550000000001E4
133 132 -1.2800550000000001E4
133 133 2.5100100000000002E4
133 134 -1.2299550000000001E4
134 133 -1.2800550000000001E4
134 134 2.5100100000000002E4
134 135 -1.2299550000000001E4
135 134 -1.2800550000000001E4
135 135 2.5100100000000002E4
135 136 -1.2299550000000001E4
136 135 -1.2800550000000001E4
136 136 2.5100100000000002E4
136 137 -1.2299550000000001E4
137 136 -1.2800550000000001E4
137 137 2.5100100000000002E4
137 138 -1.2299550000000001E4
138 137 -1.2800550000000001E4
138 138 2.5100100000000002E4
138 139 -1.2299550000000001E4
139 138 -1.2800550000000001E4
139 139 2.5100100000000002E4
139 140 -1.2299550000000001E4
140 139 -1.2800550000000001E4
140 140 2.5100100000000002E4
140 141 -1.2299550000000001E4
141 140 -1.2800550000000001E4
141 141 2.5100100000000002E4
141 142 -1.2299550000000001E4
142 141 -1.2800550000000001E4
142 142 2.5100100000000002E4
142 143 -1.2299550000000001E4
143 142 -1.2800550000000001E4
143 143 2.5100100000000002E4
143 144 -1.2299550000000001E4
144 143 -1.2800550000000001E4
144 144 2.5100100000000002E4
144 145 -1.2299550000000001E4
145 144 -1.2800550000000001E4
145 145 2.5100100000000002E4
145 146 -1.2299550000000001E4
146 145 -1.2800550000000001E4
146 146 2.5100100000000002E4
146 147 -1.2299550000000001E4
147 146 -1.2800550000000001E4
147 147 2.5100100000000002E4
147 148 -1.2299550000000001E4
148 147 -1.2800550000000001E4
148 148 2.5100100000000002E4
148 149 -1.2299550000000001E4
149 148 -1.2800550000000001E4
149 149 2.5100100000000002E4
149 150 -1.2299550000000001E4
150 149 -1.2800550000000001E4
150 150 2.5100100000000002E4
150 151 -1.2299550000000001E4
151 150 -1.2800550000000001E4
151 151 2.5100100000000002E4
151 152 -1.2299550000000001E4
152 151 -1.2800550000000001E4
152 152 2.5100100000000002E4
152 153 -1.2299550000000001E4
153 152 -1.2800550000000001E4
153 153 2.5100100000000002E4
153 154 -1.2299550000000001E4
154 153 -1.2800550000000001E4
154 154 2.5100100000000002E4
154 155 -1.2299550000000001E4
155 154 -1.2800550000000001E4
155 155 2.5100100000000002E4
155 156 -1.2299550000000001E4
156 155 -1.2800550000000001E4
156 156 2.5100100000000002E4
156 157 -1.2299550000000001E4
157 156 -1.2800550000000001E4
157 157 2.5100100000000002E4
157 158 -1.2299550000000001E4
158 157 -1.2800550000000001E4
158 158 2.5100100000000002E4
158 159 -1.2299550000000001E4
159 158 -1.2800550000000001E4
159 159 2.5100100000000002E4
159 160 -1.2299550000000001E4
160 159 -1.2800550000000001E4
160 160 2.5100100000000002E4
160 161 -1.2299550000000001E4
161 160 -1.2800550000000001E4
161 161 2.5100100000000002E4
161 162 -1.2299550000000001E4
162 161 -1.2800550000000001E4
162 162 2.5100100000000002E4
162 163 -1.2299550000000001E4
163 162 -1.2800550000000001E4
163 163 2.5100100000000002E4
163 164 -1.2299550000000001E4
164 163 -1.2800550000000001E4
164 164 2.5100100000000002E4
164 165 -1.2299550000000001E4
165 164 -1.2800550000000001E4
165 165 2.5100100000000002E4
165 166 -1.2299550000000001E4
166 165 -1.2800550000000001E4
166 166 2.5100100000000002E4
166 167 -1.2299550000000001E4
167 166 -1.2800550000000001E4
167 167 2.5100100000000002E4
167 168 -1.2299550000000001E4
168 167 -1.2800550000000001E4
168 168 2.5100100000000002E4
168 169 -1.2299550000000001E4
169 168 -1.2800550000000001E4
169 169 2.5100100000000002E4
169 170 -1.2299550000000001E4
170 169 -1.2800550000000001E4
170 170 2.5100100000000002E4
170 171 -1.2299550000000001E4
171 170 -1.2800550000000001E4
171 171 2.5100100000000002E4
171 172 -1.2299550000000001E4
172 171 -1.2800550000000001E4
172 172 2.5100100000000002E4
172 173 -1.2299550000000001E4
173 172 -1.2800550000000001E4
173 173 2.5100100000000002E4
173 174 -1.2299550000000001E4
174 173 -1.2800550000000001E4
174 174 2.5100100000000002E4
174 175 -1.2299550000000001E4
175 174 -1.2800550000000001E4
175 175 2.5100100000000002E4
175 176 -1.2299550000000001E4
176 175 -1.2800550000000001E4
176 176 2.5100100000000002E4
176 177 -1.2299550000000001E4
177 176 -1.2800550000000001E4
177 177 2.5100100000000002E4
177 178 -1.2299550000000001E4
178 177 -1.2800550000000001E4
178 178 2.5100100000000002E4
178 179 -1.2299550000000001E4
179 178 -1.2800550000000001E4
179 179 2.5100100000000002E4
179 180 -1.2299550000000001E4
180 179 -1.2800550000000001E4
180 180 2.5100100000000002E4
180 181 -1.2299550000000001E4
181 180 -1.2800550000000001E4
181 181 2.5100100000000002E4
181 182 -1.2299550000000001E4
182 181 -1.2800550000000001E4
182 182 2.5100100000000002E4
182 183 -1.2299550000000001E4
183 182 -1.2800550000000001E4
183 183 2.5100100000000002E4
183 184 -1.2299550000000001E4
184 183 -1.2800550000000001E4
184 184 2.5100100000000002E4
184 185 -1.2299550000000001E4
185 184 -1.2800550000000001E4
185 185 2.5100100000000002E4
185 186 -1.2299550000000001E4
186 185 -1.2800550000000001E4
186 186 2.5100100000000002E4
186 187 -1.2299550000000001E4
187 186 -1.2800550000000001E4
187 187 2.5100100000000002E4
187 188 -1.2299550000000001E4
188 187 -1.2800550000000001E4
188 188 2.5100100000000002E4
188 189 -1.2299550000000001E4
189 188 -1.2800550000000001E4
189 189 2.5100100000000002E4
189 190 -1.2299550000000001E4
190 189 -1.2800550000000001E4
190 190 2.5100100000000002E4
190 191 -1.2299550000000001E4
191 190 -1.2800550000000001E4
191 191 2.5100100000000002E4
191 192 -1.2299550000000001E4
192 191 -1.2800550000000001E4
192 192 2.5100100000000002E4
192 193 -1.2299550000000001E4
193 192 -1.2800550000000001E4
193 193 2.5100100000000002E4
193 194 -1.2299550000000001E4
194 193 -1.2800550000000001E4
194 194 2.5100100000000002E4
194 195 -1.2299550000000001E4
195 194 -1.2800550000000001E4
195 195 2.5100100000000002E4
195 196 -1.2299550000000001E4
196 195 -1.2800550000000001E4
196 196 2.5100100000000002E4
196 197 -1.2299550000000001E4
197 196 -1.2800550000000001E4
197 197 2.5100100000000002E4
197 198 -1.2299550000000001E4
198 197 -1.2800550000000001E4
198 198 2.5100100000000002E4
198 199 -1.2299550000000001E4
199 198 -1.2800550000000001E4
199 199 2.5100100000000002E4
199 200 -1.2299550000000001E4
200 199 -1.2800550000000001E4
200 200 2.5100100000000002E4
200 201 -1.2299550000000001E4
201 200 -1.2800550000000001E4
201 201 2.5100100000000002E4
201 202 -1.2299550000000001E4
202 201 -1.2800550000000001E4
202 202 2.5100100000000002E4
202 203 -1.2299550000000001E4
203 202 -1.2800550000000001E4
203 203 2.5100100000000002E4
203 204 -1.2299550000000001E4
204 203 -1.2800550000000001E4
204 204 2.5100100000000002E4
204 205 -1.2299550000000001E4
205 204 -1.2800550000000001E4
205 205 2.5100100000000002E4
205 206 -1.2299550000000001E4
206 205 -1.2800550000000001E4
206 206 2.5100100000000002E4
206 207 -1.2299550000000001E4
207 206 -1.2800550000000001E4
207 207 2.5100100000000002E4
207 208 -1.2299550000000001E4
208 207 -1.2800550000000001E4
208 208 2.5100100000000002E4
208 209 -1.2299550000000001E4
209 208 -1.2800550000000001E4
209 209 2.5100100000000002E4
209 210 -1.2299550000000001E4
210 209 -1.2800550000000001E4
210 210 2.5100100000000002E4
210 211 -1.2299550000000001E4
211 210 -1.2800550000000001E4
211 211 2.5100100000000002E4
211 212 -1.2299550000000001E4
212 211 -1.2800550000000001E4
212 212 2.5100100000000002E4
212 213 -1.2299550000000001E4
213 212 -1.2800550000000001E4
213 213 2.5100100000000002E4
213 214 -1.2299550000000001E4
214 213 -1.2800550000000001E4
214 214 2.5100100000000002E4
214 215 -1.2299550000000001E4
215 214 -1.2800550000000001E4
215 215 2.5100100000000002E4
215 216 -1.2299550000000001E4
216 215 -1.2800550000000001E4
216 216 2.5100100000000002E4
216 217 -1.2299550000000001E4
217 216 -1.2800550000000001E4
217 217 2.5100100000000002E4
217 218 -1.2299550000000001E4
218 217 -1.2800550000000001E4
218 218 2.5100100000000002E4
218 219 -1.2299550000000001E4
219 218 -1.2800550000000001E4
219 219 2.5100100000000002E4
219 220 -1.2299550000000001E4
220 219 -1.2800550000000001E4
220 220 2.5100100000000002E4
220 221 -1.2299550000000001E4
221 220 -1.2800550000000001E4
221 221 2.5100100000000002E4
221 222 -1.2299550000000001E4
222 221 -1.2800550000000001E4
222 222 2.5100100000000002E4
222 223 -1.2299550000000001E4
223 222 -1.2800550000000001E4
223 223 2.5100100000000002E4
223 224 -1.2299550000000001E4
224 223 -1.2800550000000001E4
224 224 2.5100100000000002E4
224 225 -1.2299550000000001E4
225 224 -1.2800550000000001E4
225 225 2.5100100000000002E4
225 226 -1.2299550000000001E4
226 225 -1.2800550000000001E4
226 226 2.5100100000000002E4
226 227 -1.2299550000000001E4
227 226 -1.2800550000000001E4
227 227 2.5100100000000002E4
227 228 -1.2299550000000001E4
228 227 -1.2800550000000001E4
228 228 2.5100100000000002E4
228 229 -1.2299550000000001E4
229 228 -1.2800550000000001E4
229 229 2.5100100000000002E4
229 230 -1.2299550000000001E4
230 229 -1.2800550000000001E4
230 230 2.5100100000000002E4
230 231 -1.2299550000000001E4
231 230 -1.2800550000000001E4
231 231 2.5100100000000002E4
231 232 -1.2299550000000001E4
232 231 -1.2800550000000001E4
232 232 2.5100100000000002E4
232 233 -1.2299550000000001E4
233 232 -1.2800550000000001E4
233 233 2.5100100000000002E4
233 234 -1.2299550000000001E4
234 233 -1.2800550000000001E4
234 234 2.5100100000000002E4
234 235 -1.2299550000000001E4
235 234 -1.2800550000000001E4
235 235 2.5100100000000002E4
235 236 -1.2299550000000001E4
236 235 -1.2800550000000001E4
236 236 2.5100100000000002E4
236 237 -1.2299550000000001E4
237 236 -1.2800550000000001E4
237 237 2.5100100000000002E4
237 238 -1.2299550000000001E4
238 237 -1.2800550000000001E4
238 238 2.5100100000000002E4
238 239 -1.2299550000000001E4
239 238 -1.2800550000000001E4
239 239 2.5100100000000002E4
239 240 -1.2299550000000001E4
240 239 -1.2800550000000001E4
240 240 2.5100100000000002E4
240 241 -1.2299550000000001E4
241 240 -1.2800550000000001E4
241 241 2.5100100000000002E4
241 242 -1.2299550000000001E4
242 241 -1.2800550000000001E4
242 242 2.5100100000000002E4
242 243 -1.2299550000000001E4
243 242 -1.2800550000000001E4
243 243 2.5100100000000002E4
243 244 -1.2299550000000001E4
244 243 -1.2800550000000001E4
244 244 2.5100100000000002E4
244 245 -1.2299550000000001E4
245 244 -1.2800550000000001E4
245 245 2.5100100000000002E4
245 246 -1.2299550000000001E4
246 245 -1.2800550000000001E4
246 246 2.5100100000000002E4
246 247 -1.2299550000000001E4
247 246 -1.2800550000000001E4
247 247 2.5100100000000002E4
247 248 -1.2299550000000001E4
248 247 -1.2800550000000001E4
248 248 2.5100100000000002E4
248 249 -1.2299550000000001E4
249 248 -1.2800550000000001E4
249 249 2.5100100000000002E4
249 250 -1.2299550000000001E4
250 249 -1.2800550000000001E4
250 250 2.5100100000000002E4
250 251 -1.2299550000000001E4
251 250 -1.2800550000000001E4
251 251 2.5100100000000002E4
251 252 -1.2299550000000001E4
252 251 -1.2800550000000001E4
252 252 2.5100100000000002E4
252 253 -1.2299550000000001E4
253 252 -1.2800550000000001E4
253 253 2.5100100000000002E4
253 254 -1.2299550000000001E4
254 253 -1.2800550000000001E4
254 254 2.5100100000000002E4
254 255 -1.2299550000000001E4
255 254 -1.2800550000000001E4
255 255 2.5100100000000002E4
255 256 -1.2299550000000001E4
256 255 -1.2800550000000001E4
256 256 2.5100100000000002E4
256 257 -1.2299550000000001E4
257 256 -1.2800550000000001E4
257 257 2.5100100000000002E4
257 258 -1.2299550000000001E4
258 257 -1.2800550000000001E4
258 258 2.5100100000000002E4
258 259 -1.2299550000000001E4
259 258 -1.2800550000000001E4
259 259 2.5100100000000002E4
259 260 -1.2299550000000001E4
260 259 -1.2800550000000001E4
260 260 2.5100100000000002E4
260 261 -1.2299550000000001E4
261 260 -1.2800550000000001E4
261 261 2.5100100000000002E4
261 262 -1.2299550000000001E4
262 261 -1.2800550000000001E4
262 262 2.5100100000000002E4
262 263 -1.2299550000000001E4
263 262 -1.2800550000000001E4
263 263 2.5100100000000002E4
263 264 -1.2299550000000001E4
264 263 -1.2800550000000001E4
264 264 2.5100100000000002E4
264 265 -1.2299550000000001E4
265 264 -1.2800550000000001E4
265 265 2.5100100000000002E4
265 266 -1.2299550000000001E4
266 265 -1.2800550000000001E4
266 266 2.5100100000000002E4
266 267 -1.2299550000000001E4
267 266 -1.2800550000000001E4
267 267 2.5100100000000002E4
267 268 -1.2299550000000001E4
268 267 -1.2800550000000001E4
268 268 2.5100100000000002E4
268 269 -1.2299550000000001E4
269 268 -1.2800550000000001E4
269 269 2.5100100000000002E4
269 270 -1.2299550000000001E4
270 269 -1.2800550000000001E4
270 270 2.5100100000000002E4
270 271 -1.2299550000000001E4
271 270 -1.2800550000000001E4
271 271 2.5100100000000002E4
271 272 -1.2299550000000001E4
272 271 -1.2800550000000001E4
272 272 2.5100100000000002E4
272 273 -1.2299550000000001E4
273 272 -1.2800550000000001E4
273 273 2.5100100000000002E4
273 274 -1.2299550000000001E4
274 273 -1.2800550000000001E4
274 274 2.5100100000000002E4
274 275 -1.2299550000000001E4
275 274 -1.2800550000000001E4
275 275 2.5100100000000002E4
275 276 -1.2299550000000001E4
276 275 -1.2800550000000001E4
276 276 2.5100100000000002E4
276 277 -1.2299550000000001E4
277 276 -1.2800550000000001E4
277 277 2.5100100000000002E4
277 278 -1.2299550000000001E4
278 277 -1.2800550000000001E4
278 278 2.5100100000000002E4
278 279 -1.2299550000000001E4
279 278 -1.2800550000000001E4
279 279 2.5100100000000002E4
279 280 -1.2299550000000001E4
280 279 -1.2800550000000001E4
280 280 2.5100100000000002E4
280 281 -1.2299550000000001E4
281 280 -1.2800550000000001E4
281 281 2.5100100000000002E4
281 282 -1.2299550000000001E4
282 281 -1.2800550000000001E4
282 282 2.5100100000000002E4
282 283 -1.2299550000000001E4
283 282 -1.2800550000000001E4
283 283 2.5100100000000002E4
283 284 -1.2299550000000001E4
284 283 -1.2800550000000001E4
284 284 2.5100100000000002E4
284 285 -1.2299550000000001E4
285 284 -1.2800550000000001E4
285 285 2.5100100000000002E4
285 286 -1.2299550000000001E4
286 285 -1.2800550000000001E4
286 286 2.5100100000000002E4
286 287 -1.2299550000000001E4
287 286 -1.2800550000000001E4
287 287 2.5100100000000002E4
287 288 -1.2299550000000001E4
288 287 -1.2800550000000001E4
288 288 2.5100100000000002E4
288 289 -1.2299550000000001E4
289 288 -1.2800550000000001E4
289 289 2.5100100000000002E4
289 290 -1.2299550000000001E4
290 289 -1.2800550000000001E4
290 290 2.5100100000000002E4
290 291 -1.2299550000000001E4
291 290 -1.2800550000000001E4
291 291 2.5100100000000002E4
291 292 -1.2299550000000001E4
292 291 -1.2800550000000001E4
292 292 2.5100100000000002E4
292 293 -1.2299550000000001E4
293 292 -1.2800550000000001E4
293 293 2.5100100000000002E4
293 294 -1.2299550000000001E4
294 293 -1.2800550000000001E4
294 294 2.5100100000000002E4
294 295 -1.2299550000000001E4
295 294 -1.2800550000000001E4
295 295 2.5100100000000002E4
295 296 -1.2299550000000001E4
296 295 -1.2800550000000001E4
296 296 2.5100100000000002E4
296 297 -1.2299550000000001E4
297 296 -1.2800550000000001E4
297 297 2.5100100000000002E4
297 298 -1.2299550000000001E4
298 297 -1.2800550000000001E4
298 298 2.5100100000000002E4
298 299 -1.2299550000000001E4
299 298 -1.2800550000000001E4
299 299 2.5100100000000002E4
299 300 -1.2299550000000001E4
300 299 -1.2800550000000001E4
300 300 2.5100100000000002E4
300 301 -1.2299550000000001E4
301 300 -1.2800550000000001E4
301 301 2.5100100000000002E4
301 302 -1.2299550000000001E4
302 301 -1.2800550000000001E4
302 302 2.5100100000000002E4
302 303 -1.2299550000000001E4
303 302 -1.2800550000000001E4
303 303 2.5100100000000002E4
303 304 -1.2299550000000001E4
304 303 -1.2800550000000001E4
304 304 2.5100100000000002E4
304 305 -1.2299550000000001E4
305 304 -1.2800550000000001E4
305 305 2.5100100000000002E4
305 306 -1.2299550000000001E4
306 305 -1.2800550000000001E4
306 306 2.5100100000000002E4
306 307 -1.2299550000000001E4
307 306 -1.2800550000000001E4
307 307 2.5100100000000002E4
307 308 -1.2299550000000001E4
308 307 -1.2800550000000001E4
308 308 2.5100100000000002E4
308 309 -1.2299550000000001E4
309 308 -1.2800550000000001E4
309 309 2.5100100000000002E4
309 310 -1.2299550000000001E4
310 309 -1.2800550000000001E4
310 310 2.5100100000000002E4
310 311 -1.2299550000000001E4
311 310 -1.2800550000000001E4
311 311 2.5100100000000002E4
311 312 -1.2299550000000001E4
312 311 -1.2800550000000001E4
312 312 2.5100100000000002E4
312 313 -1.2299550000000001E4
313 312 -1.2800550000000001E4
313 313 2.5100100000000002E4
313 314 -1.2299550000000001E4
314 313 -1.2800550000000001E4
314 314 2.5100100000000002E4
314 315 -1.2299550000000001E4
315 314 -1.2800550000000001E4
315 315 2.5100100000000002E4
315 316 -1.2299550000000001E4
316 315 -1.2800550000000001E4
316 316 2.5100100000000002E4
316 317 -1.2299550000000001E4
317 316 -1.2800550000000001E4
317 317 2.5100100000000002E4
317 318 -1.2299550000000001E4
318 317 -1.2800550000000001E4
318 318 2.5100100000000002E4
318 319 -1.2299550000000001E4
319 318 -1.2800550000000001E4
319 319 2.5100100000000002E4
319 320 -1.2299550000000001E4
320 319 -1.2800550000000001E4
320 320 2.5100100000000002E4
320 321 -1.2299550000000001E4
321 320 -1.2800550000000001E4
321 321 2.5100100000000002E4
321 322 -1.2299550000000001E4
322 321 -1.2800550000000001E4
322 322 2.5100100000000002E4
322 323 -1.2299550000000001E4
323 322 -1.2800550000000001E4
323 323 2.5100100000000002E4
323 324 -1.2299550000000001E4
324 323 -1.2800550000000001E4
324 324 2.5100100000000002E4
324 325 -1.2299550000000001E4
325 324 -1.2800550000000001E4
325 325 2.5100100000000002E4
325 326 -1.2299550000000001E4
326 325 -1.2800550000000001E4
326 326 2.5100100000000002E4
326 327 -1.2299550000000001E4
327 326 -1.2800550000000001E4
327 327 2.5100100000000002E4
327 328 -1.2299550000000001E4
328 327 -1.2800550000000001E4
328 328 2.5100100000000002E4
328 329 -1.2299550000000001E4
329 328 -1.2800550000000001E4
329 329 2.5100100000000002E4
329 330 -1.2299550000000001E4
330 329 -1.2800550000000001E4
330 330 2.5100100000000002E4
330 331 -1.2299550000000001E4
331 330 -1.2800550000000001E4
331 331 2.5100100000000002E4
331 332 -1.2299550000000001E4
332 331 -1.2800550000000001E4
332 332 2.5100100000000002E4
332 333 -1.2299550000000001E4
333 332 -1.2800550000000001E4
333 333 2.5100100000000002E4
333 334 -1.2299550000000001E4
334 333 -1.2800550000000001E4
334 334 2.5100100000000002E4
334 335 -1.2299550000000001E4
335 334 -1.2800550000000001E4
335 335 2.5100100000000002E4
335 336 -1.2299550000000001E4
336 335 -1.2800550000000001E4
336 336 2.5100100000000002E4
336 337 -1.2299550000000001E4
337 336 -1.2800550000000001E4
337 337 2.5100100000000002E4
337 338 -1.2299550000000001E4
338 337 -1.2800550000000001E4
338 338 2.5100100000000002E4
338 339 -1.2299550000000001E4
339 338 -1.2800550000000001E4
339 339 2.5100100000000002E4
339 340 -1.2299550000000001E4
340 339 -1.2800550000000001E4
340 340 2.5100100000000002E4
340 341 -1.2299550000000001E4
341 340 -1.2800550000000001E4
341 341 2.5100100000000002E4
341 342 -1.2299550000000001E4
342 341 -1.2800550000000001E4
342 342 2.5100100000000002E4
342 343 -1.2299550000000001E4
343 342 -1.2800550000000001E4
343 343 2.5100100000000002E4
343 344 -1.2299550000000001E4
344 343 -1.2800550000000001E4
344 344 2.5100100000000002E4
344 345 -1.2299550000000001E4
345 344 -1.2800550000000001E4
345 345 2.5100100000000002E4
345 346 -1.2299550000000001E4
346 345 -1.2800550000000001E4
346 346 2.5100100000000002E4
346 347 -1.2299550000000001E4
347 346 -1.2800550000000001E4
347 347 2.5100100000000002E4
347 348 -1.2299550000000001E4
348 347 -1.2800550000000001E4
348 348 2.5100100000000002E4
348 349 -1.2299550000000001E4
349 348 -1.2800550000000001E4
349 349 2.5100100000000002E4
349 350 -1.2299550000000001E4
350 349 -1.2800550000000001E4
350 350 2.5100100000000002E4
350 351 -1.2299550000000001E4
351 350 -1.2800550000000001E4
351 351 2.5100100000000002E4
351 352 -1.2299550000000001E4
352 351 -1.2800550000000001E4
352 352 2.5100100000000002E4
352 353 -1.2299550000000001E4
353 352 -1.2800550000000001E4
353 353 2.5100100000000002E4
353 354 -1.2299550000000001E4
354 353 -1.2800550000000001E4
354 354 2.5100100000000002E4
354 355 -1.2299550000000001E4
355 354 -1.2800550000000001E4
355 355 2.5100100000000002E4
355 356 -1.2299550000000001E4
356 355 -1.2800550000000001E4
356 356 2.5100100000000002E4
356 357 -1.2299550000000001E4
357 356 -1.2800550000000001E4
357 357 2.5100100000000002E4
357 358 -1.2299550000000001E4
358 357 -1.2800550000000001E4
358 358 2.5100100000000002E4
358 359 -1.2299550000000001E4
359 358 -1.2800550000000001E4
359 359 2.5100100000000002E4
359 360 -1.2299550000000001E4
360 359 -1.2800550000000001E4
360 360 2.5100100000000002E4
360 361 -1.2299550000000001E4
361 360 -1.2800550000000001E4
361 361 2.5100100000000002E4
361 362 -1.2299550000000001E4
362 361 -1.2800550000000001E4
362 362 2.5100100000000002E4
362 363 -1.2299550000000001E4
363 362 -1.2800550000000001E4
363 363 2.5100100000000002E4
363 364 -1.2299550000000001E4
364 363 -1.2800550000000001E4
364 364 2.5100100000000002E4
364 365 -1.2299550000000001E4
365 364 -1.2800550000000001E4
365 365 2.5100100000000002E4
365 366 -1.2299550000000001E4
366 365 -1.2800550000000001E4
366 366 2.5100100000000002E4
366 367 -1.2299550000000001E4
367 366 -1.2800550000000001E4
367 367 2.5100100000000002E4
367 368 -1.2299550000000001E4
368 367 -1.2800550000000001E4
368 368 2.5100100000000002E4
368 369 -1.2299550000000001E4
369 368 -1.2800550000000001E4
369 369 2.5100100000000002E4
369 370 -1.2299550000000001E4
370 369 -1.2800550000000001E4
370 370 2.5100100000000002E4
370 371 -1.2299550000000001E4
371 370 -1.2800550000000001E4
371 371 2.5100100000000002E4
371 372 -1.2299550000000001E4
372 371 -1.2800550000000001E4
372 372 2.5100100000000002E4
372 373 -1.2299550000000001E4
373 372 -1.2800550000000001E4
373 373 2.5100100000000002E4
373 374 -1.2299550000000001E4
374 373 -1.2800550000000001E4
374 374 2.5100100000000002E4
374 375 -1.2299550000000001E4
375 374 -1.2800550000000001E4
375 375 2.5100100000000002E4
375 376 -1.2299550000000001E4
376 375 -1.2800550000000001E4
376 376 2.5100100000000002E4
376 377 -1.2299550000000001E4
377 376 -1.2800550000000001E4
377 377 2.5100100000000002E4
377 378 -1.2299550000000001E4
378 377 -1.2800550000000001E4
378 378 2.5100100000000002E4
378 379 -1.2299550000000001E4
379 378 -1.2800550000000001E4
379 379 2.5100100000000002E4
379 380 -1.2299550000000001E4
380 379 -1.2800550000000001E4
380 380 2.5100100000000002E4
380 381 -1.2299550000000001E4
381 380 -1.2800550000000001E4
381 381 2.5100100000000002E4
381 382 -1.2299550000000001E4
382 381 -1.2800550000000001E4
382 382 2.5100100000000002E4
382 383 -1.2299550000000001E4
383 382 -1.2800550000000001E4
383 383 2.5100100000000002E4
383 384 -1.2299550000000001E4
384 383 -1.2800550000000001E4
384 384 2.5100100000000002E4
384 385 -1.2299550000000001E4
385 384 -1.2800550000000001E4
385 385 2.5100100000000002E4
385 386 -1.2299550000000001E4
386 385 -1.2800550000000001E4
386 386 2.5100100000000002E4
386 387 -1.2299550000000001E4
387 386 -1.2800550000000001E4
387 387 2.5100100000000002E4
387 388 -1.2299550000000001E4
388 387 -1.2800550000000001E4
388 388 2.5100100000000002E4
388 389 -1.2299550000000001E4
389 388 -1.2800550000000001E4
389 389 2.5100100000000002E4
389 390 -1.2299550000000001E4
390 389 -1.2800550000000001E4
390 390 2.5100100000000002E4
390 391 -1.2299550000000001E4
391 390 -1.2800550000000001E4
391 391 2.5100100000000002E4
391 392 -1.2299550000000001E4
392 391 -1.2800550000000001E4
392 392 2.5100100000000002E4
392 393 -1.2299550000000001E4
393 392 -1.2800550000000001E4
393 393 2.5100100000000002E4
393 394 -1.2299550000000001E4
394 393 -1.2800550000000001E4
394 394 2.5100100000000002E4
394 395 -1.2299550000000001E4
395 394 -1.2800550000000001E4
395 395 2.5100100000000002E4
395 396 -1.2299550000000001E4
396 395 -1.2800550000000001E4
396 396 2.5100100000000002E4
396 397 -1.2299550000000001E4
397 396 -1.2800550000000001E4
397 397 2.5100100000000002E4
397 398 -1.2299550000000001E4
398 397 -1.2800550000000001E4
398 398 2.5100100000000002E4
398 399 -1.2299550000000001E4
399 398 -1.2800550000000001E4
399 399 2.5100100000000002E4
399 400 -1.2299550000000001E4
400 399 -1.2800550000000001E4
400 400 2.5100100000000002E4
400 401 -1.2299550000000001E4
401 400 -1.2800550000000001E4
401 401 2.5100100000000002E4
401 402 -1.2299550000000001E4
402 401 -1.2800550000000001E4
402 402 2.5100100000000002E4
402 403 -1.2299550000000001E4
403 402 -1.2800550000000001E4
403 403 2.5100100000000002E4
403 404 -1.2299550000000001E4
404 403 -1.2800550000000001E4
404 404 2.5100100000000002E4
404 405 -1.2299550000000001E4
405 404 -1.2800550000000001E4
405 405 2.5100100000000002E4
405 406 -1.2299550000000001E4
406 405 -1.2800550000000001E4
406 406 2.5100100000000002E4
406 407 -1.2299550000000001E4
407 406 -1.2800550000000001E4
407 407 2.5100100000000002E4
407 408 -1.2299550000000001E4
408 407 -1.2800550000000001E4
408 408 2.5100100000000002E4
408 409 -1.2299550000000001E4
409 408 -1.2800550000000001E4
409 409 2.5100100000000002E4
409 410 -1.2299550000000001E4
410 409 -1.2800550000000001E4
410 410 2.5100100000000002E4
410 411 -1.2299550000000001E4
411 410 -1.2800550000000001E4
411 411 2.5100100000000002E4
411 412 -1.2299550000000001E4
412 411 -1.2800550000000001E4
412 412 2.5100100000000002E4
412 413 -1.2299550000000001E4
413 412 -1.2800550000000001E4
413 413 2.5100100000000002E4
413 414 -1.2299550000000001E4
414 413 -1.2800550000000001E4
414 414 2.5100100000000002E4
414 415 -1.2299550000000001E4
415 414 -1.2800550000000001E4
415 415 2.5100100000000002E4
415 416 -1.2299550000000001E4
416 415 -1.2800550000000001E4
416 416 2.5100100000000002E4
416 417 -1.2299550000000001E4
417 416 -1.2800550000000001E4
417 417 2.5100100000000002E4
417 418 -1.2299550000000001E4
418 417 -1.2800550000000001E4
418 418 2.5100100000000002E4
418 419 -1.2299550000000001E4
419 418 -1.2800550000000001E4
419 419 2.5100100000000002E4
419 420 -1.2299550000000001E4
420 419 -1.2800550000000001E4
420 420 2.5100100000000002E4
420 421 -1.2299550000000001E4
421 420 -1.2800550000000001E4
421 421 2.5100100000000002E4
421 422 -1.2299550000000001E4
422 421 -1.2800550000000001E4
422 422 2.5100100000000002E4
422 423 -1.2299550000000001E4
423 422 -1.2800550000000001E4
423 423 2.5100100000000002E4
423 424 -1.2299550000000001E4
424 423 -1.2800550000000001E4
424 424 2.5100100000000002E4
424 425 -1.2299550000000001E4
425 424 -1.2800550000000001E4
425 425 2.5100100000000002E4
425 426 -1.2299550000000001E4
426 425 -1.2800550000000001E4
426 426 2.5100100000000002E4
426 427 -1.2299550000000001E4
427 426 -1.2800550000000001E4
427 427 2.5100100000000002E4
427 428 -1.2299550000000001E4
428 427 -1.2800550000000001E4
428 428 2.5100100000000002E4
428 429 -1.2299550000000001E4
429 428 -1.2800550000000001E4
429 429 2.5100100000000002E4
429 430 -1.2299550000000001E4
430 429 -1.2800550000000001E4
430 430 2.5100100000000002E4
430 431 -1.2299550000000001E4
431 430 -1.2800550000000001E4
431 431 2.5100100000000002E4
431 432 -1.2299550000000001E4
432 431 -1.2800550000000001E4
432 432 2.5100100000000002E4
432 433 -1.2299550000000001E4
433 432 -1.2800550000000001E4
433 433 2.5100100000000002E4
433 434 -1.2299550000000001E4
434 433 -1.2800550000000001E4
434 434 2.5100100000000002E4
434 435 -1.2299550000000001E4
435 434 -1.2800550000000001E4
435 435 2.5100100000000002E4
435 436 -1.2299550000000001E4
436 435 -1.2800550000000001E4
436 436 2.5100100000000002E4
436 437 -1.2299550000000001E4
437 436 -1.2800550000000001E4
437 437 2.5100100000000002E4
437 438 -1.2299550000000001E4
438 437 -1.2800550000000001E4
438 438 2.5100100000000002E4
438 439 -1.2299550000000001E4
439 438 -1.2800550000000001E4
439 439 2.5100100000000002E4
439 440 -1.2299550000000001E4
440 439 -1.2800550000000001E4
440 440 2.5100100000000002E4
440 441 -1.2299550000000001E4
441 440 -1.2800550000000001E4
441 441 2.5100100000000002E4
441 442 -1.2299550000000001E4
442 441 -1.2800550000000001E4
442 442 2.5100100000000002E4
442 443 -1.2299550000000001E4
443 442 -1.2800550000000001E4
443 443 2.5100100000000002E4
443 444 -1.2299550000000001E4
444 443 -1.2800550000000001E4
444 444 2.5100100000000002E4
444 445 -1.2299550000000001E4
445 444 -1.2800550000000001E4
445 445 2.5100100000000002E4
445 446 -1.2299550000000001E4
446 445 -1.2800550000000001E4
446 446 2.5100100000000002E4
446 447 -1.2299550000000001E4
447 446 -1.2800550000000001E4
447 447 2.5100100000000002E4
447 448 -1.2299550000000001E4
448 447 -1.2800550000000001E4
448 448 2.5100100000000002E4
448 449 -1.2299550000000001E4
449 448 -1.2800550000000001E4
449 449 2.5100100000000002E4
449 450 -1.2299550000000001E4
450 449 -1.2800550000000001E4
450 450 2.5100100000000002E4
450 451 -1.2299550000000001E4
451 450 -1.2800550000000001E4
451 451 2.5100100000000002E4
451 452 -1.2299550000000001E4
452 451 -1.2800550000000001E4
452 452 2.5100100000000002E4
452 453 -1.2299550000000001E4
453 452 -1.2800550000000001E4
453 453 2.5100100000000002E4
453 454 -1.2299550000000001E4
454 453 -1.2800550000000001E4
454 454 2.5100100000000002E4
454 455 -1.2299550000000001E4
455 454 -1.2800550000000001E4
455 455 2.5100100000000002E4
455 456 -1.2299550000000001E4
456 455 -1.2800550000000001E4
456 456 2.5100100000000002E4
456 457 -1.2299550000000001E4
457 456 -1.2800550000000001E4
457 457 2.5100100000000002E4
457 458 -1.2299550000000001E4
458 457 -1.2800550000000001E4
458 458 2.5100100000000002E4
458 459 -1.2299550000000001E4
459 458 -1.2800550000000001E4
459 459 2.5100100000000002E4
459 460 -1.2299550000000001E4
460 459 -1.2800550000000001E4
460 460 2.5100100000000002E4
460 461 -1.2299550000000001E4
461 460 -1.2800550000000001E4
461 461 2.5100100000000002E4
461 462 -1.2299550000000001E4
462 461 -1.2800550000000001E4
462 462 2.5100100000000002E4
462 463 -1.2299550000000001E4
463 462 -1.2800550000000001E4
463 463 2.5100100000000002E4
463 464 -1.2299550000000001E4
464 463 -1.2800550000000001E4
464 464 2.5100100000000002E4
464 465 -1.2299550000000001E4
465 464 -1.2800550000000001E4
465 465 2.5100100000000002E4
465 466 -1.2299550000000001E4
466 465 -1.2800550000000001E4
466 466 2.5100100000000002E4
466 467 -1.2299550000000001E4
467 466 -1.2800550000000001E4
467 467 2.5100100000000002E4
467 468 -1.2299550000000001E4
468 467 -1.2800550000000001E4
468 468 2.5100100000000002E4
468 469 -1.2299550000000001E4
469 468 -1.2800550000000001E4
469 469 2.5100100000000002E4
469 470 -1.2299550000000001E4
470 469 -1.2800550000000001E4
470 470 2.5100100000000002E4
470 471 -1.2299550000000001E4
471 470 -1.2800550000000001E4
471 471 2.5100100000000002E4
471 472 -1.2299550000000001E4
472 471 -1.2800550000000001E4
472 472 2.5100100000000002E4
472 473 -1.2299550000000001E4
473 472 -1.2800550000000001E4
473 473 2.5100100000000002E4
473 474 -1.2299550000000001E4
474 473 -1.2800550000000001E4
474 474 2.5100100000000002E4
474 475 -1.2299550000000001E4
475 474 -1.2800550000000001E4
475 475 2.5100100000000002E4
475 476 -1.2299550000000001E4
476 475 -1.2800550000000001E4
476 476 2.5100100000000002E4
476 477 -1.2299550000000001E4
477 476 -1.2800550000000001E4
477 477 2.5100100000000002E4
477 478 -1.2299550000000001E4
478 477 -1.2800550000000001E4
478 478 2.5100100000000002E4
478 479 -1.2299550000000001E4
479 478 -1.2800550000000001E4
479 479 2.5100100000000002E4
479 480 -1.2299550000000001E4
480 479 -1.2800550000000001E4
480 480 2.5100100000000002E4
480 481 -1.2299550000000001E4
481 480 -1.2800550000000001E4
481 481 2.5100100000000002E4
481 482 -1.2299550000000001E4
482 481 -1.2800550000000001E4
482 482 2.5100100000000002E4
482 483 -1.2299550000000001E4
483 482 -1.2800550000000001E4
483 483 2.5100100000000002E4
483 484 -1.2299550000000001E4
484 483 -1.2800550000000001E4
484 484 2.5100100000000002E4
484 485 -1.2299550000000001E4
485 484 -1.2800550000000001E4
485 485 2.5100100000000002E4
485 486 -1.2299550000000001E4
486 485 -1.2800550000000001E4
486 486 2.5100100000000002E4
486 487 -1.2299550000000001E4
487 486 -1.2800550000000001E4
487 487 2.5100100000000002E4
487 488 -1.2299550000000001E4
488 487 -1.2800550000000001E4
488 488 2.5100100000000002E4
488 489 -1.2299550000000001E4
489 488 -1.2800550000000001E4
489 489 2.5100100000000002E4
489 490 -1.2299550000000001E4
490 489 -1.2800550000000001E4
490 490 2.5100100000000002E4
490 491 -1.2299550000000001E4
491 490 -1.2800550000000001E4
491 491 2.5100100000000002E4
491 492 -1.2299550000000001E4
492 491 -1.2800550000000001E4
492 492 2.5100100000000002E4
492 493 -1.2299550000000001E4
493 492 -1.2800550000000001E4
493 493 2.5100100000000002E4
493 494 -1.2299550000000001E4
494 493 -1.2800550000000001E4
494 494 2.5100100000000002E4
494 495 -1.2299550000000001E4
495 494 -1.2800550000000001E4
495 495 2.5100100000000002E4
495 496 -1.2299550000000001E4
496 495 -1.2800550000000001E4
496 496 2.5100100000000002E4
496 497 -1.2299550000000001E4
497 496 -1.2800550000000001E4
497 497 2.5100100000000002E4
497 498 -1.2299550000000001E4
498 497 -1.2800550000000001E4
498 498 2.5100100000000002E4
498 499 -1.2299550000000001E4
499 498 -1.2800550000000001E4
499 499 2.5100100000000002E4
499 500 -1.2299550000000001E4
500 499 -1.2800550000000001E4
500 500 2.5100100000000002E4
