%%MatrixMarket matrix coordinate real general
% 1D convection-diffusion (-eps*u'' + beta*u' = f), central FD, n=3500, eps=0.07, beta=1.0, kappa~=805188
3500 3500 10498
1 1 1.7159801400000001E6
1 2 -8.562395700000001E5
2 1 -8.597405700000001E5
2 2 1.7159801400000001E6
2 3 -8.562395700000001E5
3 2 -8.597405700000001E5
3 3 1.7159801400000001E6
3 4 -8.562395700000001E5
4 3 -8.597405700000001E5
4 4 1.7159801400000001E6
4 5 -8.562395700000001E5
5 4 -8.597405700000001E5
5 5 1.7159801400000001E6
5 6 -8.562395700000001E5
6 5 -8.597405700000001E5
6 6 1.7159801400000001E6
6 7 -8.562395700000001E5
7 6 -8.597405700000001E5
7 7 1.7159801400000001E6
7 8 -8.562395700000001E5
8 7 -8.597405700000001E5
8 8 1.7159801400000001E6
8 9 -8.562395700000001E5
9 8 -8.597405700000001E5
9 9 1.7159801400000001E6
9 10 -8.562395700000001E5
10 9 -8.597405700000001E5
10 10 1.7159801400000001E6
10 11 -8.562395700000001E5
11 10 -8.597405700000001E5
11 11 1.7159801400000001E6
11 12 -8.562395700000001E5
12 11 -8.597405700000001E5
12 12 1.7159801400000001E6
12 13 -8.562395700000001E5
13 12 -8.597405700000001E5
13 13 1.7159801400000001E6
13 14 -8.562395700000001E5
14 13 -8.597405700000001E5
14 14 1.7159801400000001E6
14 15 -8.562395700000001E5
15 14 -8.597405700000001E5
15 15 1.7159801400000001E6
15 16 -8.562395700000001E5
16 15 -8.597405700000001E5
16 16 1.7159801400000001E6
16 17 -8.562395700000001E5
17 16 -8.597405700000001E5
17 17 1.7159801400000001E6
17 18 -8.562395700000001E5
18 17 -8.597405700000001E5
18 18 1.7159801400000001E6
18 19 -8.562395700000001E5
19 18 -8.597405700000001E5
19 19 1.7159801400000001E6
19 20 -8.562395700000001E5
20 19 -8.597405700000001E5
20 20 1.7159801400000001E6
20 21 -8.562395700000001E5
21 20 -8.597405700000001E5
21 21 1.7159801400000001E6
21 22 -8.562395700000001E5
22 21 -8.597405700000001E5
22 22 1.7159801400000001E6
22 23 -8.562395700000001E5
23 22 -8.597405700000001E5
23 23 1.7159801400000001E6
23 24 -8.562395700000001E5
24 23 -8.597405700000001E5
24 24 1.7159801400000001E6
24 25 -8.562395700000001E5
25 24 -8.597405700000001E5
25 25 1.7159801400000001E6
25 26 -8.562395700000001E5
26 25 -8.597405700000001E5
26 26 1.7159801400000001E6
26 27 -8.562395700000001E5
27 26 -8.597405700000001E5
27 27 1.7159801400000001E6
27 28 -8.562395700000001E5
28 27 -8.597405700000001E5
28 28 1.7159801400000001E6
28 29 -8.562395700000001E5
29 28 -8.597405700000001E5
29 29 1.7159801400000001E6
29 30 -8.562395700000001E5
30 29 -8.597405700000001E5
30 30 1.7159801400000001E6
30 31 -8.562395700000001E5
31 30 -8.597405700000001E5
31 31 1.7159801400000001E6
31 32 -8.562395700000001E5
32 31 -8.597405700000001E5
32 32 1.7159801400000001E6
32 33 -8.562395700000001E5
33 32 -8.597405700000001E5
33 33 1.7159801400000001E6
33 34 -8.562395700000001E5
34 33 -8.597405700000001E5
34 34 1.7159801400000001E6
34 35 -8.562395700000001E5
35 34 -8.597405700000001E5
35 35 1.7159801400000001E6
35 36 -8.562395700000001E5
36 35 -8.597405700000001E5
36 36 1.7159801400000001E6
36 37 -8.562395700000001E5
37 36 -8.597405700000001E5
37 37 1.7159801400000001E6
37 38 -8.562395700000001E5
38 37 -8.597405700000001E5
38 38 1.7159801400000001E6
38 39 -8.562395700000001E5
39 38 -8.597405700000001E5
39 39 1.7159801400000001E6
39 40 -8.562395700000001E5
40 39 -8.597405700000001E5
40 40 1.7159801400000001E6
40 41 -8.562395700000001E5
41 40 -8.597405700000001E5
41 41 1.7159801400000001E6
41 42 -8.562395700000001E5
42 41 -8.597405700000001E5
42 42 1.7159801400000001E6
42 43 -8.562395700000001E5
43 42 -8.597405700000001E5
43 43 1.7159801400000001E6
43 44 -8.562395700000001E5
44 43 -8.597405700000001E5
44 44 1.7159801400000001E6
44 45 -8.562395700000001E5
45 44 -8.597405700000001E5
45 45 1.7159801400000001E6
45 46 -8.562395700000001E5
46 45 -8.597405700000001E5
46 46 1.7159801400000001E6
46 47 -8.562395700000001E5
47 46 -8.597405700000001E5
47 47 1.7159801400000001E6
47 48 -8.562395700000001E5
48 47 -8.597405700000001E5
48 48 1.7159801400000001E6
48 49 -8.562395700000001E5
49 48 -8.597405700000001E5
49 49 1.7159801400000001E6
49 50 -8.562395700000001E5
50 49 -8.597405700000001E5
50 50 1.7159801400000001E6
50 51 -8.562395700000001E5
51 50 -8.597405700000001E5
51 51 1.7159801400000001E6
51 52 -8.562395700000001E5
52 51 -8.597405700000001E5
52 52 1.7159801400000001E6
52 53 -8.562395700000001E5
53 52 -8.597405700000001E5
53 53 1.7159801400000001E6
53 54 -8.562395700000001E5
54 53 -8.597405700000001E5
54 54 1.7159801400000001E6
54 55 -8.562395700000001E5
55 54 -8.597405700000001E5
55 55 1.7159801400000001E6
55 56 -8.562395700000001E5
56 55 -8.597405700000001E5
56 56 1.7159801400000001E6
56 57 -8.562395700000001E5
57 56 -8.597405700000001E5
57 57 1.7159801400000001E6
57 58 -8.562395700000001E5
58 57 -8.597405700000001E5
58 58 1.7159801400000001E6
58 59 -8.562395700000001E5
59 58 -8.597405700000001E5
59 59 1.7159801400000001E6
59 60 -8.562395700000001E5
60 59 -8.597405700000001E5
60 60 1.7159801400000001E6
60 61 -8.562395700000001E5
61 60 -8.597405700000001E5
61 61 1.7159801400000001E6
61 62 -8.562395700000001E5
62 61 -8.597405700000001E5
62 62 1.7159801400000001E6
62 63 -8.562395700000001E5
63 62 -8.597405700000001E5
63 63 1.7159801400000001E6
63 64 -8.562395700000001E5
64 63 -8.597405700000001E5
64 64 1.7159801400000001E6
64 65 -8.562395700000001E5
65 64 -8.597405700000001E5
65 65 1.7159801400000001E6
65 66 -8.562395700000001E5
66 65 -8.597405700000001E5
66 66 1.7159801400000001E6
66 67 -8.562395700000001E5
67 66 -8.597405700000001E5
67 67 1.7159801400000001E6
67 68 -8.562395700000001E5
68 67 -8.597405700000001E5
68 68 1.7159801400000001E6
68 69 -8.562395700000001E5
69 68 -8.597405700000001E5
69 69 1.7159801400000001E6
69 70 -8.562395700000001E5
70 69 -8.597405700000001E5
70 70 1.7159801400000001E6
70 71 -8.562395700000001E5
71 70 -8.597405700000001E5
71 71 1.7159801400000001E6
71 72 -8.562395700000001E5
72 71 -8.597405700000001E5
72 72 1.7159801400000001E6
72 73 -8.562395700000001E5
73 72 -8.597405700000001E5
73 73 1.7159801400000001E6
73 74 -8.562395700000001E5
74 73 -8.597405700000001E5
74 74 1.7159801400000001E6
74 75 -8.562395700000001E5
75 74 -8.597405700000001E5
75 75 1.7159801400000001E6
75 76 -8.562395700000001E5
76 75 -8.597405700000001E5
76 76 1.7159801400000001E6
76 77 -8.562395700000001E5
77 76 -8.597405700000001E5
77 77 1.7159801400000001E6
77 78 -8.562395700000001E5
78 77 -8.597405700000001E5
78 78 1.7159801400000001E6
78 79 -8.562395700000001E5
79 78 -8.597405700000001E5
79 79 1.7159801400000001E6
79 80 -8.562395700000001E5
80 79 -8.597405700000001E5
80 80 1.7159801400000001E6
80 81 -8.562395700000001E5
81 80 -8.597405700000001E5
81 81 1.7159801400000001E6
81 82 -8.562395700000001E5
82 81 -8.597405700000001E5
82 82 1.7159801400000001E6
82 83 -8.562395700000001E5
83 82 -8.597405700000001E5
83 83 1.7159801400000001E6
83 84 -8.562395700000001E5
84 83 -8.597405700000001E5
84 84 1.7159801400000001E6
84 85 -8.562395700000001E5
85 84 -8.597405700000001E5
85 85 1.7159801400000001E6
85 86 -8.562395700000001E5
86 85 -8.597405700000001E5
86 86 1.7159801400000001E6
86 87 -8.562395700000001E5
87 86 -8.597405700000001E5
87 87 1.7159801400000001E6
87 88 -8.562395700000001E5
88 87 -8.597405700000001E5
88 88 1.7159801400000001E6
88 89 -8.562395700000001E5
89 88 -8.597405700000001E5
89 89 1.7159801400000001E6
89 90 -8.562395700000001E5
90 89 -8.597405700000001E5
90 90 1.7159801400000001E6
90 91 -8.562395700000001E5
91 90 -8.597405700000001E5
91 91 1.7159801400000001E6
91 92 -8.562395700000001E5
92 91 -8.597405700000001E5
92 92 1.7159801400000001E6
92 93 -8.562395700000001E5
93 92 -8.597405700000001E5
93 93 1.7159801400000001E6
93 94 -8.562395700000001E5
94 93 -8.597405700000001E5
94 94 1.7159801400000001E6
94 95 -8.562395700000001E5
95 94 -8.597405700000001E5
95 95 1.7159801400000001E6
95 96 -8.562395700000001E5
96 95 -8.597405700000001E5
96 96 1.7159801400000001E6
96 97 -8.562395700000001E5
97 96 -8.597405700000001E5
97 97 1.7159801400000001E6
97 98 -8.562395700000001E5
98 97 -8.597405700000001E5
98 98 1.7159801400000001E6
98 99 -8.562395700000001E5
99 98 -8.597405700000001E5
99 99 1.7159801400000001E6
99 100 -8.562395700000001E5
100 99 -8.597405700000001E5
100 100 1.7159801400000001E6
100 101 -8.562395700000001E5
101 100 -8.597405700000001E5
101 101 1.7159801400000001E6
101 102 -8.562395700000001E5
102 101 -8.597405700000001E5
102 102 1.7159801400000001E6
102 103 -8.562395700000001E5
103 102 -8.597405700000001E5
103 103 1.7159801400000001E6
103 104 -8.562395700000001E5
104 103 -8.597405700000001E5
104 104 1.7159801400000001E6
104 105 -8.562395700000001E5
105 104 -8.597405700000001E5
105 105 1.7159801400000001E6
105 106 -8.562395700000001E5
106 105 -8.597405700000001E5
106 106 1.7159801400000001E6
106 107 -8.562395700000001E5
107 106 -8.597405700000001E5
107 107 1.7159801400000001E6
107 108 -8.562395700000001E5
108 107 -8.597405700000001E5
108 108 1.7159801400000001E6
108 109 -8.562395700000001E5
109 108 -8.597405700000001E5
109 109 1.7159801400000001E6
109 110 -8.562395700000001E5
110 109 -8.597405700000001E5
110 110 1.7159801400000001E6
110 111 -8.562395700000001E5
111 110 -8.597405700000001E5
111 111 1.7159801400000001E6
111 112 -8.562395700000001E5
112 111 -8.597405700000001E5
112 112 1.7159801400000001E6
112 113 -8.562395700000001E5
113 112 -8.597405700000001E5
113 113 1.7159801400000001E6
113 114 -8.562395700000001E5
114 113 -8.597405700000001E5
114 114 1.7159801400000001E6
114 115 -8.562395700000001E5
115 114 -8.597405700000001E5
115 115 1.7159801400000001E6
115 116 -8.562395700000001E5
116 115 -8.597405700000001E5
116 116 1.7159801400000001E6
116 117 -8.562395700000001E5
117 116 -8.597405700000001E5
117 117 1.7159801400000001E6
117 118 -8.562395700000001E5
118 117 -8.597405700000001E5
118 118 1.7159801400000001E6
118 119 -8.562395700000001E5
119 118 -8.597405700000001E5
119 119 1.7159801400000001E6
119 120 -8.562395700000001E5
120 119 -8.597405700000001E5
120 120 1.7159801400000001E6
120 121 -8.562395700000001E5
121 120 -8.597405700000001E5
121 121 1.7159801400000001E6
121 122 -8.562395700000001E5
122 121 -8.597405700000001E5
122 122 1.7159801400000001E6
122 123 -8.562395700000001E5
123 122 -8.597405700000001E5
123 123 1.7159801400000001E6
123 124 -8.562395700000001E5
124 123 -8.597405700000001E5
124 124 1.7159801400000001E6
124 125 -8.562395700000001E5
125 124 -8.597405700000001E5
125 125 1.7159801400000001E6
125 126 -8.562395700000001E5
126 125 -8.597405700000001E5
126 126 1.7159801400000001E6
126 127 -8.562395700000001E5
127 126 -8.597405700000001E5
127 127 1.7159801400000001E6
127 128 -8.562395700000001E5
128 127 -8.597405700000001E5
128 128 1.7159801400000001E6
128 129 -8.562395700000001E5
129 128 -8.597405700000001E5
129 129 1.7159801400000001E6
129 130 -8.562395700000001E5
130 129 -8.597405700000001E5
130 130 1.7159801400000001E6
130 131 -8.562395700000001E5
131 130 -8.597405700000001E5
131 131 1.7159801400000001E6
131 132 -8.562395700000001E5
132 131 -8.597405700000001E5
132 132 1.7159801400000001E6
132 133 -8.562395700000001E5
133 132 -8.597405700000001E5
133 133 1.7159801400000001E6
133 134 -8.562395700000001E5
134 133 -8.597405700000001E5
134 134 1.7159801400000001E6
134 135 -8.562395700000001E5
135 134 -8.597405700000001E5
135 135 1.7159801400000001E6
135 136 -8.562395700000001E5
136 135 -8.597405700000001E5
136 136 1.7159801400000001E6
136 137 -8.562395700000001E5
137 136 -8.597405700000001E5
137 137 1.7159801400000001E6
137 138 -8.562395700000001E5
138 137 -8.597405700000001E5
138 138 1.7159801400000001E6
138 139 -8.562395700000001E5
139 138 -8.597405700000001E5
139 139 1.7159801400000001E6
139 140 -8.562395700000001E5
140 139 -8.597405700000001E5
140 140 1.7159801400000001E6
140 141 -8.562395700000001E5
141 140 -8.597405700000001E5
141 141 1.7159801400000001E6
141 142 -8.562395700000001E5
142 141 -8.597405700000001E5
142 142 1.7159801400000001E6
142 143 -8.562395700000001E5
143 142 -8.597405700000001E5
143 143 1.7159801400000001E6
143 144 -8.562395700000001E5
144 143 -8.597405700000001E5
144 144 1.7159801400000001E6
144 145 -8.562395700000001E5
145 144 -8.597405700000001E5
145 145 1.7159801400000001E6
145 146 -8.562395700000001E5
146 145 -8.597405700000001E5
146 146 1.7159801400000001E6
146 147 -8.562395700000001E5
147 146 -8.597405700000001E5
147 147 1.7159801400000001E6
147 148 -8.562395700000001E5
148 147 -8.597405700000001E5
148 148 1.7159801400000001E6
148 149 -8.562395700000001E5
149 148 -8.597405700000001E5
149 149 1.7159801400000001E6
149 150 -8.562395700000001E5
150 149 -8.597405700000001E5
150 150 1.7159801400000001E6
150 151 -8.562395700000001E5
151 150 -8.597405700000001E5
151 151 1.7159801400000001E6
151 152 -8.562395700000001E5
152 151 -8.597405700000001E5
152 152 1.7159801400000001E6
152 153 -8.562395700000001E5
153 152 -8.597405700000001E5
153 153 1.7159801400000001E6
153 154 -8.562395700000001E5
154 153 -8.597405700000001E5
154 154 1.7159801400000001E6
154 155 -8.562395700000001E5
155 154 -8.597405700000001E5
155 155 1.7159801400000001E6
155 156 -8.562395700000001E5
156 155 -8.597405700000001E5
156 156 1.7159801400000001E6
156 157 -8.562395700000001E5
157 156 -8.597405700000001E5
157 157 1.7159801400000001E6
157 158 -8.562395700000001E5
158 157 -8.597405700000001E5
158 158 1.7159801400000001E6
158 159 -8.562395700000001E5
159 158 -8.597405700000001E5
159 159 1.7159801400000001E6
159 160 -8.562395700000001E5
160 159 -8.597405700000001E5
160 160 1.7159801400000001E6
160 161 -8.562395700000001E5
161 160 -8.597405700000001E5
161 161 1.7159801400000001E6
161 162 -8.562395700000001E5
162 161 -8.597405700000001E5
162 162 1.7159801400000001E6
162 163 -8.562395700000001E5
163 162 -8.597405700000001E5
163 163 1.7159801400000001E6
163 164 -8.562395700000001E5
164 163 -8.597405700000001E5
164 164 1.7159801400000001E6
164 165 -8.562395700000001E5
165 164 -8.597405700000001E5
165 165 1.7159801400000001E6
165 166 -8.562395700000001E5
166 165 -8.597405700000001E5
166 166 1.7159801400000001E6
166 167 -8.562395700000001E5
167 166 -8.597405700000001E5
167 167 1.7159801400000001E6
167 168 -8.562395700000001E5
168 167 -8.597405700000001E5
168 168 1.7159801400000001E6
168 169 -8.562395700000001E5
169 168 -8.597405700000001E5
169 169 1.7159801400000001E6
169 170 -8.562395700000001E5
170 169 -8.597405700000001E5
170 170 1.7159801400000001E6
170 171 -8.562395700000001E5
171 170 -8.597405700000001E5
171 171 1.7159801400000001E6
171 172 -8.562395700000001E5
172 171 -8.597405700000001E5
172 172 1.7159801400000001E6
172 173 -8.562395700000001E5
173 172 -8.597405700000001E5
173 173 1.7159801400000001E6
173 174 -8.562395700000001E5
174 173 -8.597405700000001E5
174 174 1.7159801400000001E6
174 175 -8.562395700000001E5
175 174 -8.597405700000001E5
175 175 1.7159801400000001E6
175 176 -8.562395700000001E5
176 175 -8.597405700000001E5
176 176 1.7159801400000001E6
176 177 -8.562395700000001E5
177 176 -8.597405700000001E5
177 177 1.7159801400000001E6
177 178 -8.562395700000001E5
178 177 -8.597405700000001E5
178 178 1.7159801400000001E6
178 179 -8.562395700000001E5
179 178 -8.597405700000001E5
179 179 1.7159801400000001E6
179 180 -8.562395700000001E5
180 179 -8.597405700000001E5
180 180 1.7159801400000001E6
180 181 -8.562395700000001E5
181 180 -8.597405700000001E5
181 181 1.7159801400000001E6
181 182 -8.562395700000001E5
182 181 -8.597405700000001E5
182 182 1.7159801400000001E6
182 183 -8.562395700000001E5
183 182 -8.597405700000001E5
183 183 1.7159801400000001E6
183 184 -8.562395700000001E5
184 183 -8.597405700000001E5
184 184 1.7159801400000001E6
184 185 -8.562395700000001E5
185 184 -8.597405700000001E5
185 185 1.7159801400000001E6
185 186 -8.562395700000001E5
186 185 -8.597405700000001E5
186 186 1.7159801400000001E6
186 187 -8.562395700000001E5
187 186 -8.597405700000001E5
187 187 1.7159801400000001E6
187 188 -8.562395700000001E5
188 187 -8.597405700000001E5
188 188 1.7159801400000001E6
188 189 -8.562395700000001E5
189 188 -8.597405700000001E5
189 189 1.7159801400000001E6
189 190 -8.562395700000001E5
190 189 -8.597405700000001E5
190 190 1.7159801400000001E6
190 191 -8.562395700000001E5
191 190 -8.597405700000001E5
191 191 1.7159801400000001E6
191 192 -8.562395700000001E5
192 191 -8.597405700000001E5
192 192 1.7159801400000001E6
192 193 -8.562395700000001E5
193 192 -8.597405700000001E5
193 193 1.7159801400000001E6
193 194 -8.562395700000001E5
194 193 -8.597405700000001E5
194 194 1.7159801400000001E6
194 195 -8.562395700000001E5
195 194 -8.597405700000001E5
195 195 1.7159801400000001E6
195 196 -8.562395700000001E5
196 195 -8.597405700000001E5
196 196 1.7159801400000001E6
196 197 -8.562395700000001E5
197 196 -8.597405700000001E5
197 197 1.7159801400000001E6
197 198 -8.562395700000001E5
198 197 -8.597405700000001E5
198 198 1.7159801400000001E6
198 199 -8.562395700000001E5
199 198 -8.597405700000001E5
199 199 1.7159801400000001E6
199 200 -8.562395700000001E5
200 199 -8.597405700000001E5
200 200 1.7159801400000001E6
200 201 -8.562395700000001E5
201 200 -8.597405700000001E5
201 201 1.7159801400000001E6
201 202 -8.562395700000001E5
202 201 -8.597405700000001E5
202 202 1.7159801400000001E6
202 203 -8.562395700000001E5
203 202 -8.597405700000001E5
203 203 1.7159801400000001E6
203 204 -8.562395700000001E5
204 203 -8.597405700000001E5
204 204 1.7159801400000001E6
204 205 -8.562395700000001E5
205 204 -8.597405700000001E5
205 205 1.7159801400000001E6
205 206 -8.562395700000001E5
206 205 -8.597405700000001E5
206 206 1.7159801400000001E6
206 207 -8.562395700000001E5
207 206 -8.597405700000001E5
207 207 1.7159801400000001E6
207 208 -8.562395700000001E5
208 207 -8.597405700000001E5
208 208 1.7159801400000001E6
208 209 -8.562395700000001E5
209 208 -8.597405700000001E5
209 209 1.7159801400000001E6
209 210 -8.562395700000001E5
210 209 -8.597405700000001E5
210 210 1.7159801400000001E6
210 211 -8.562395700000001E5
211 210 -8.597405700000001E5
211 211 1.7159801400000001E6
211 212 -8.562395700000001E5
212 211 -8.597405700000001E5
212 212 1.7159801400000001E6
212 213 -8.562395700000001E5
213 212 -8.597405700000001E5
213 213 1.7159801400000001E6
213 214 -8.562395700000001E5
214 213 -8.597405700000001E5
214 214 1.7159801400000001E6
214 215 -8.562395700000001E5
215 214 -8.597405700000001E5
215 215 1.7159801400000001E6
215 216 -8.562395700000001E5
216 215 -8.597405700000001E5
216 216 1.7159801400000001E6
216 217 -8.562395700000001E5
217 216 -8.597405700000001E5
217 217 1.7159801400000001E6
217 218 -8.562395700000001E5
218 217 -8.597405700000001E5
218 218 1.7159801400000001E6
218 219 -8.562395700000001E5
219 218 -8.597405700000001E5
219 219 1.7159801400000001E6
219 220 -8.562395700000001E5
220 219 -8.597405700000001E5
220 220 1.7159801400000001E6
220 221 -8.562395700000001E5
221 220 -8.597405700000001E5
221 221 1.7159801400000001E6
221 222 -8.562395700000001E5
222 221 -8.597405700000001E5
222 222 1.7159801400000001E6
222 223 -8.562395700000001E5
223 222 -8.597405700000001E5
223 223 1.7159801400000001E6
223 224 -8.562395700000001E5
224 223 -8.597405700000001E5
224 224 1.7159801400000001E6
224 225 -8.562395700000001E5
225 224 -8.597405700000001E5
225 225 1.7159801400000001E6
225 226 -8.562395700000001E5
226 225 -8.597405700000001E5
226 226 1.7159801400000001E6
226 227 -8.562395700000001E5
227 226 -8.597405700000001E5
227 227 1.7159801400000001E6
227 228 -8.562395700000001E5
228 227 -8.597405700000001E5
228 228 1.7159801400000001E6
228 229 -8.562395700000001E5
229 228 -8.597405700000001E5
229 229 1.7159801400000001E6
229 230 -8.562395700000001E5
230 229 -8.597405700000001E5
230 230 1.7159801400000001E6
230 231 -8.562395700000001E5
231 230 -8.597405700000001E5
231 231 1.7159801400000001E6
231 232 -8.562395700000001E5
232 231 -8.597405700000001E5
232 232 1.7159801400000001E6
232 233 -8.562395700000001E5
233 232 -8.597405700000001E5
233 233 1.7159801400000001E6
233 234 -8.562395700000001E5
234 233 -8.597405700000001E5
234 234 1.7159801400000001E6
234 235 -8.562395700000001E5
235 234 -8.597405700000001E5
235 235 1.7159801400000001E6
235 236 -8.562395700000001E5
236 235 -8.597405700000001E5
236 236 1.7159801400000001E6
236 237 -8.562395700000001E5
237 236 -8.597405700000001E5
237 237 1.7159801400000001E6
237 238 -8.562395700000001E5
238 237 -8.597405700000001E5
238 238 1.7159801400000001E6
238 239 -8.562395700000001E5
239 238 -8.597405700000001E5
239 239 1.7159801400000001E6
239 240 -8.562395700000001E5
240 239 -8.597405700000001E5
240 240 1.7159801400000001E6
240 241 -8.562395700000001E5
241 240 -8.597405700000001E5
241 241 1.7159801400000001E6
241 242 -8.562395700000001E5
242 241 -8.597405700000001E5
242 242 1.7159801400000001E6
242 243 -8.562395700000001E5
243 242 -8.597405700000001E5
243 243 1.7159801400000001E6
243 244 -8.562395700000001E5
244 243 -8.597405700000001E5
244 244 1.7159801400000001E6
244 245 -8.562395700000001E5
245 244 -8.597405700000001E5
245 245 1.7159801400000001E6
245 246 -8.562395700000001E5
246 245 -8.597405700000001E5
246 246 1.7159801400000001E6
246 247 -8.562395700000001E5
247 246 -8.597405700000001E5
247 247 1.7159801400000001E6
247 248 -8.562395700000001E5
248 247 -8.597405700000001E5
248 248 1.7159801400000001E6
248 249 -8.562395700000001E5
249 248 -8.597405700000001E5
249 249 1.7159801400000001E6
249 250 -8.562395700000001E5
250 249 -8.597405700000001E5
250 250 1.7159801400000001E6
250 251 -8.562395700000001E5
251 250 -8.597405700000001E5
251 251 1.7159801400000001E6
251 252 -8.562395700000001E5
252 251 -8.597405700000001E5
252 252 1.7159801400000001E6
252 253 -8.562395700000001E5
253 252 -8.597405700000001E5
253 253 1.7159801400000001E6
253 254 -8.562395700000001E5
254 253 -8.597405700000001E5
254 254 1.7159801400000001E6
254 255 -8.562395700000001E5
255 254 -8.597405700000001E5
255 255 1.7159801400000001E6
255 256 -8.562395700000001E5
256 255 -8.597405700000001E5
256 256 1.7159801400000001E6
256 257 -8.562395700000001E5
257 256 -8.597405700000001E5
257 257 1.7159801400000001E6
257 258 -8.562395700000001E5
258 257 -8.597405700000001E5
258 258 1.7159801400000001E6
258 259 -8.562395700000001E5
259 258 -8.597405700000001E5
259 259 1.7159801400000001E6
259 260 -8.562395700000001E5
260 259 -8.597405700000001E5
260 260 1.7159801400000001E6
260 261 -8.562395700000001E5
261 260 -8.597405700000001E5
261 261 1.7159801400000001E6
261 262 -8.562395700000001E5
262 261 -8.597405700000001E5
262 262 1.7159801400000001E6
262 263 -8.562395700000001E5
263 262 -8.597405700000001E5
263 263 1.7159801400000001E6
263 264 -8.562395700000001E5
264 263 -8.597405700000001E5
264 264 1.7159801400000001E6
264 265 -8.562395700000001E5
265 264 -8.597405700000001E5
265 265 1.7159801400000001E6
265 266 -8.562395700000001E5
266 265 -8.597405700000001E5
266 266 1.7159801400000001E6
266 267 -8.562395700000001E5
267 266 -8.597405700000001E5
267 267 1.7159801400000001E6
267 268 -8.562395700000001E5
268 267 -8.597405700000001E5
268 268 1.7159801400000001E6
268 269 -8.562395700000001E5
269 268 -8.597405700000001E5
269 269 1.7159801400000001E6
269 270 -8.562395700000001E5
270 269 -8.597405700000001E5
270 270 1.7159801400000001E6
270 271 -8.562395700000001E5
271 270 -8.597405700000001E5
271 271 1.7159801400000001E6
271 272 -8.562395700000001E5
272 271 -8.597405700000001E5
272 272 1.7159801400000001E6
272 273 -8.562395700000001E5
273 272 -8.597405700000001E5
273 273 1.7159801400000001E6
273 274 -8.562395700000001E5
274 273 -8.597405700000001E5
274 274 1.7159801400000001E6
274 275 -8.562395700000001E5
275 274 -8.597405700000001E5
275 275 1.7159801400000001E6
275 276 -8.562395700000001E5
276 275 -8.597405700000001E5
276 276 1.7159801400000001E6
276 277 -8.562395700000001E5
277 276 -8.597405700000001E5
277 277 1.7159801400000001E6
277 278 -8.562395700000001E5
278 277 -8.597405700000001E5
278 278 1.7159801400000001E6
278 279 -8.562395700000001E5
279 278 -8.597405700000001E5
279 279 1.7159801400000001E6
279 280 -8.562395700000001E5
280 279 -8.597405700000001E5
280 280 1.7159801400000001E6
280 281 -8.562395700000001E5
281 280 -8.597405700000001E5
281 281 1.7159801400000001E6
281 282 -8.562395700000001E5
282 281 -8.597405700000001E5
282 282 1.7159801400000001E6
282 283 -8.562395700000001E5
283 282 -8.597405700000001E5
283 283 1.7159801400000001E6
283 284 -8.562395700000001E5
284 283 -8.597405700000001E5
284 284 1.7159801400000001E6
284 285 -8.562395700000001E5
285 284 -8.597405700000001E5
285 285 1.7159801400000001E6
285 286 -8.562395700000001E5
286 285 -8.597405700000001E5
286 286 1.7159801400000001E6
286 287 -8.562395700000001E5
287 286 -8.597405700000001E5
287 287 1.7159801400000001E6
287 288 -8.562395700000001E5
288 287 -8.597405700000001E5
288 288 1.7159801400000001E6
288 289 -8.562395700000001E5
289 288 -8.597405700000001E5
289 289 1.7159801400000001E6
289 290 -8.562395700000001E5
290 289 -8.597405700000001E5
290 290 1.7159801400000001E6
290 291 -8.562395700000001E5
291 290 -8.597405700000001E5
291 291 1.7159801400000001E6
291 292 -8.562395700000001E5
292 291 -8.597405700000001E5
292 292 1.7159801400000001E6
292 293 -8.562395700000001E5
293 292 -8.597405700000001E5
293 293 1.7159801400000001E6
293 294 -8.562395700000001E5
294 293 -8.597405700000001E5
294 294 1.7159801400000001E6
294 295 -8.562395700000001E5
295 294 -8.597405700000001E5
295 295 1.7159801400000001E6
295 296 -8.562395700000001E5
296 295 -8.597405700000001E5
296 296 1.7159801400000001E6
296 297 -8.562395700000001E5
297 296 -8.597405700000001E5
297 297 1.7159801400000001E6
297 298 -8.562395700000001E5
298 297 -8.597405700000001E5
298 298 1.7159801400000001E6
298 299 -8.562395700000001E5
299 298 -8.597405700000001E5
299 299 1.7159801400000001E6
299 300 -8.562395700000001E5
300 299 -8.597405700000001E5
300 300 1.7159801400000001E6
300 301 -8.562395700000001E5
301 300 -8.597405700000001E5
301 301 1.7159801400000001E6
301 302 -8.562395700000001E5
302 301 -8.597405700000001E5
302 302 1.7159801400000001E6
302 303 -8.562395700000001E5
303 302 -8.597405700000001E5
303 303 1.7159801400000001E6
303 304 -8.562395700000001E5
304 303 -8.597405700000001E5
304 304 1.7159801400000001E6
304 305 -8.562395700000001E5
305 304 -8.597405700000001E5
305 305 1.7159801400000001E6
305 306 -8.562395700000001E5
306 305 -8.597405700000001E5
306 306 1.7159801400000001E6
306 307 -8.562395700000001E5
307 306 -8.597405700000001E5
307 307 1.7159801400000001E6
307 308 -8.562395700000001E5
308 307 -8.597405700000001E5
308 308 1.7159801400000001E6
308 309 -8.562395700000001E5
309 308 -8.597405700000001E5
309 309 1.7159801400000001E6
309 310 -8.562395700000001E5
310 309 -8.597405700000001E5
310 310 1.7159801400000001E6
310 311 -8.562395700000001E5
311 310 -8.597405700000001E5
311 311 1.7159801400000001E6
311 312 -8.562395700000001E5
312 311 -8.597405700000001E5
312 312 1.7159801400000001E6
312 313 -8.562395700000001E5
313 312 -8.597405700000001E5
313 313 1.7159801400000001E6
313 314 -8.562395700000001E5
314 313 -8.597405700000001E5
314 314 1.7159801400000001E6
314 315 -8.562395700000001E5
315 314 -8.597405700000001E5
315 315 1.7159801400000001E6
315 316 -8.562395700000001E5
316 315 -8.597405700000001E5
316 316 1.7159801400000001E6
316 317 -8.562395700000001E5
317 316 -8.597405700000001E5
317 317 1.7159801400000001E6
317 318 -8.562395700000001E5
318 317 -8.597405700000001E5
318 318 1.7159801400000001E6
318 319 -8.562395700000001E5
319 318 -8.597405700000001E5
319 319 1.7159801400000001E6
319 320 -8.562395700000001E5
320 319 -8.597405700000001E5
320 320 1.7159801400000001E6
320 321 -8.562395700000001E5
321 320 -8.597405700000001E5
321 321 1.7159801400000001E6
321 322 -8.562395700000001E5
322 321 -8.597405700000001E5
322 322 1.7159801400000001E6
322 323 -8.562395700000001E5
323 322 -8.597405700000001E5
323 323 1.7159801400000001E6
323 324 -8.562395700000001E5
324 323 -8.597405700000001E5
324 324 1.7159801400000001E6
324 325 -8.562395700000001E5
325 324 -8.597405700000001E5
325 325 1.7159801400000001E6
325 326 -8.562395700000001E5
326 325 -8.597405700000001E5
326 326 1.7159801400000001E6
326 327 -8.562395700000001E5
327 326 -8.597405700000001E5
327 327 1.7159801400000001E6
327 328 -8.562395700000001E5
328 327 -8.597405700000001E5
328 328 1.7159801400000001E6
328 329 -8.562395700000001E5
329 328 -8.597405700000001E5
329 329 1.7159801400000001E6
329 330 -8.562395700000001E5
330 329 -8.597405700000001E5
330 330 1.7159801400000001E6
330 331 -8.562395700000001E5
331 330 -8.597405700000001E5
331 331 1.7159801400000001E6
331 332 -8.562395700000001E5
332 331 -8.597405700000001E5
332 332 1.7159801400000001E6
332 333 -8.562395700000001E5
333 332 -8.597405700000001E5
333 333 1.7159801400000001E6
333 334 -8.562395700000001E5
334 333 -8.597405700000001E5
334 334 1.7159801400000001E6
334 335 -8.562395700000001E5
335 334 -8.597405700000001E5
335 335 1.7159801400000001E6
335 336 -8.562395700000001E5
336 335 -8.597405700000001E5
336 336 1.7159801400000001E6
336 337 -8.562395700000001E5
337 336 -8.597405700000001E5
337 337 1.7159801400000001E6
337 338 -8.562395700000001E5
338 337 -8.597405700000001E5
338 338 1.7159801400000001E6
338 339 -8.562395700000001E5
339 338 -8.597405700000001E5
339 339 1.7159801400000001E6
339 340 -8.562395700000001E5
340 339 -8.597405700000001E5
340 340 1.7159801400000001E6
340 341 -8.562395700000001E5
341 340 -8.597405700000001E5
341 341 1.7159801400000001E6
341 342 -8.562395700000001E5
342 341 -8.597405700000001E5
342 342 1.7159801400000001E6
342 343 -8.562395700000001E5
343 342 -8.597405700000001E5
343 343 1.7159801400000001E6
343 344 -8.562395700000001E5
344 343 -8.597405700000001E5
344 344 1.7159801400000001E6
344 345 -8.562395700000001E5
345 344 -8.597405700000001E5
345 345 1.7159801400000001E6
345 346 -8.562395700000001E5
346 345 -8.597405700000001E5
346 346 1.7159801400000001E6
346 347 -8.562395700000001E5
347 346 -8.597405700000001E5
347 347 1.7159801400000001E6
347 348 -8.562395700000001E5
348 347 -8.597405700000001E5
348 348 1.7159801400000001E6
348 349 -8.562395700000001E5
349 348 -8.597405700000001E5
349 349 1.7159801400000001E6
349 350 -8.562395700000001E5
350 349 -8.597405700000001E5
350 350 1.7159801400000001E6
350 351 -8.562395700000001E5
351 350 -8.597405700000001E5
351 351 1.7159801400000001E6
351 352 -8.562395700000001E5
352 351 -8.597405700000001E5
352 352 1.7159801400000001E6
352 353 -8.562395700000001E5
353 352 -8.597405700000001E5
353 353 1.7159801400000001E6
353 354 -8.562395700000001E5
354 353 -8.597405700000001E5
354 354 1.7159801400000001E6
354 355 -8.562395700000001E5
355 354 -8.597405700000001E5
355 355 1.7159801400000001E6
355 356 -8.562395700000001E5
356 355 -8.597405700000001E5
356 356 1.7159801400000001E6
356 357 -8.562395700000001E5
357 356 -8.597405700000001E5
357 357 1.7159801400000001E6
357 358 -8.562395700000001E5
358 357 -8.597405700000001E5
358 358 1.7159801400000001E6
358 359 -8.562395700000001E5
359 358 -8.597405700000001E5
359 359 1.7159801400000001E6
359 360 -8.562395700000001E5
360 359 -8.597405700000001E5
360 360 1.7159801400000001E6
360 361 -8.562395700000001E5
361 360 -8.597405700000001E5
361 361 1.7159801400000001E6
361 362 -8.562395700000001E5
362 361 -8.597405700000001E5
362 362 1.7159801400000001E6
362 363 -8.562395700000001E5
363 362 -8.597405700000001E5
363 363 1.7159801400000001E6
363 364 -8.562395700000001E5
364 363 -8.597405700000001E5
364 364 1.7159801400000001E6
364 365 -8.562395700000001E5
365 364 -8.597405700000001E5
365 365 1.7159801400000001E6
365 366 -8.562395700000001E5
366 365 -8.597405700000001E5
366 366 1.7159801400000001E6
366 367 -8.562395700000001E5
367 366 -8.597405700000001E5
367 367 1.7159801400000001E6
367 368 -8.562395700000001E5
368 367 -8.597405700000001E5
368 368 1.7159801400000001E6
368 369 -8.562395700000001E5
369 368 -8.597405700000001E5
369 369 1.7159801400000001E6
369 370 -8.562395700000001E5
370 369 -8.597405700000001E5
370 370 1.7159801400000001E6
370 371 -8.562395700000001E5
371 370 -8.597405700000001E5
371 371 1.7159801400000001E6
371 372 -8.562395700000001E5
372 371 -8.597405700000001E5
372 372 1.7159801400000001E6
372 373 -8.562395700000001E5
373 372 -8.597405700000001E5
373 373 1.7159801400000001E6
373 374 -8.562395700000001E5
374 373 -8.597405700000001E5
374 374 1.7159801400000001E6
374 375 -8.562395700000001E5
375 374 -8.597405700000001E5
375 375 1.7159801400000001E6
375 376 -8.562395700000001E5
376 375 -8.597405700000001E5
376 376 1.7159801400000001E6
376 377 -8.562395700000001E5
377 376 -8.597405700000001E5
377 377 1.7159801400000001E6
377 378 -8.562395700000001E5
378 377 -8.597405700000001E5
378 378 1.7159801400000001E6
378 379 -8.562395700000001E5
379 378 -8.597405700000001E5
379 379 1.7159801400000001E6
379 380 -8.562395700000001E5
380 379 -8.597405700000001E5
380 380 1.7159801400000001E6
380 381 -8.562395700000001E5
381 380 -8.597405700000001E5
381 381 1.7159801400000001E6
381 382 -8.562395700000001E5
382 381 -8.597405700000001E5
382 382 1.7159801400000001E6
382 383 -8.562395700000001E5
383 382 -8.597405700000001E5
383 383 1.7159801400000001E6
383 384 -8.562395700000001E5
384 383 -8.597405700000001E5
384 384 1.7159801400000001E6
384 385 -8.562395700000001E5
385 384 -8.597405700000001E5
385 385 1.7159801400000001E6
385 386 -8.562395700000001E5
386 385 -8.597405700000001E5
386 386 1.7159801400000001E6
386 387 -8.562395700000001E5
387 386 -8.597405700000001E5
387 387 1.7159801400000001E6
387 388 -8.562395700000001E5
388 387 -8.597405700000001E5
388 388 1.7159801400000001E6
388 389 -8.562395700000001E5
389 388 -8.597405700000001E5
389 389 1.7159801400000001E6
389 390 -8.562395700000001E5
390 389 -8.597405700000001E5
390 390 1.7159801400000001E6
390 391 -8.562395700000001E5
391 390 -8.597405700000001E5
391 391 1.7159801400000001E6
391 392 -8.562395700000001E5
392 391 -8.597405700000001E5
392 392 1.7159801400000001E6
392 393 -8.562395700000001E5
393 392 -8.597405700000001E5
393 393 1.7159801400000001E6
393 394 -8.562395700000001E5
394 393 -8.597405700000001E5
394 394 1.7159801400000001E6
394 395 -8.562395700000001E5
395 394 -8.597405700000001E5
395 395 1.7159801400000001E6
395 396 -8.562395700000001E5
396 395 -8.597405700000001E5
396 396 1.7159801400000001E6
396 397 -8.562395700000001E5
397 396 -8.597405700000001E5
397 397 1.7159801400000001E6
397 398 -8.562395700000001E5
398 397 -8.597405700000001E5
398 398 1.7159801400000001E6
398 399 -8.562395700000001E5
399 398 -8.597405700000001E5
399 399 1.7159801400000001E6
399 400 -8.562395700000001E5
400 399 -8.597405700000001E5
400 400 1.7159801400000001E6
400 401 -8.562395700000001E5
401 400 -8.597405700000001E5
401 401 1.7159801400000001E6
401 402 -8.562395700000001E5
402 401 -8.597405700000001E5
402 402 1.7159801400000001E6
402 403 -8.562395700000001E5
403 402 -8.597405700000001E5
403 403 1.7159801400000001E6
403 404 -8.562395700000001E5
404 403 -8.597405700000001E5
404 404 1.7159801400000001E6
404 405 -8.562395700000001E5
405 404 -8.597405700000001E5
405 405 1.7159801400000001E6
405 406 -8.562395700000001E5
406 405 -8.597405700000001E5
406 406 1.7159801400000001E6
406 407 -8.562395700000001E5
407 406 -8.597405700000001E5
407 407 1.7159801400000001E6
407 408 -8.562395700000001E5
408 407 -8.597405700000001E5
408 408 1.7159801400000001E6
408 409 -8.562395700000001E5
409 408 -8.597405700000001E5
409 409 1.7159801400000001E6
409 410 -8.562395700000001E5
410 409 -8.597405700000001E5
410 410 1.7159801400000001E6
410 411 -8.562395700000001E5
411 410 -8.597405700000001E5
411 411 1.7159801400000001E6
411 412 -8.562395700000001E5
412 411 -8.597405700000001E5
412 412 1.7159801400000001E6
412 413 -8.562395700000001E5
413 412 -8.597405700000001E5
413 413 1.7159801400000001E6
413 414 -8.562395700000001E5
414 413 -8.597405700000001E5
414 414 1.7159801400000001E6
414 415 -8.562395700000001E5
415 414 -8.597405700000001E5
415 415 1.7159801400000001E6
415 416 -8.562395700000001E5
416 415 -8.597405700000001E5
416 416 1.7159801400000001E6
416 417 -8.562395700000001E5
417 416 -8.597405700000001E5
417 417 1.7159801400000001E6
417 418 -8.562395700000001E5
418 417 -8.597405700000001E5
418 418 1.7159801400000001E6
418 419 -8.562395700000001E5
419 418 -8.597405700000001E5
419 419 1.7159801400000001E6
419 420 -8.562395700000001E5
420 419 -8.597405700000001E5
420 420 1.7159801400000001E6
420 421 -8.562395700000001E5
421 420 -8.597405700000001E5
421 421 1.7159801400000001E6
421 422 -8.562395700000001E5
422 421 -8.597405700000001E5
422 422 1.7159801400000001E6
422 423 -8.562395700000001E5
423 422 -8.597405700000001E5
423 423 1.7159801400000001E6
423 424 -8.562395700000001E5
424 423 -8.597405700000001E5
424 424 1.7159801400000001E6
424 425 -8.562395700000001E5
425 424 -8.597405700000001E5
425 425 1.7159801400000001E6
425 426 -8.562395700000001E5
426 425 -8.597405700000001E5
426 426 1.7159801400000001E6
426 427 -8.562395700000001E5
427 426 -8.597405700000001E5
427 427 1.7159801400000001E6
427 428 -8.562395700000001E5
428 427 -8.597405700000001E5
428 428 1.7159801400000001E6
428 429 -8.562395700000001E5
429 428 -8.597405700000001E5
429 429 1.7159801400000001E6
429 430 -8.562395700000001E5
430 429 -8.597405700000001E5
430 430 1.7159801400000001E6
430 431 -8.562395700000001E5
431 430 -8.597405700000001E5
431 431 1.7159801400000001E6
431 432 -8.562395700000001E5
432 431 -8.597405700000001E5
432 432 1.7159801400000001E6
432 433 -8.562395700000001E5
433 432 -8.597405700000001E5
433 433 1.7159801400000001E6
433 434 -8.562395700000001E5
434 433 -8.597405700000001E5
434 434 1.7159801400000001E6
434 435 -8.562395700000001E5
435 434 -8.597405700000001E5
435 435 1.7159801400000001E6
435 436 -8.562395700000001E5
436 435 -8.597405700000001E5
436 436 1.7159801400000001E6
436 437 -8.562395700000001E5
437 436 -8.597405700000001E5
437 437 1.7159801400000001E6
437 438 -8.562395700000001E5
438 437 -8.597405700000001E5
438 438 1.7159801400000001E6
438 439 -8.562395700000001E5
439 438 -8.597405700000001E5
439 439 1.7159801400000001E6
439 440 -8.562395700000001E5
440 439 -8.597405700000001E5
440 440 1.7159801400000001E6
440 441 -8.562395700000001E5
441 440 -8.597405700000001E5
441 441 1.7159801400000001E6
441 442 -8.562395700000001E5
442 441 -8.597405700000001E5
442 442 1.7159801400000001E6
442 443 -8.562395700000001E5
443 442 -8.597405700000001E5
443 443 1.7159801400000001E6
443 444 -8.562395700000001E5
444 443 -8.597405700000001E5
444 444 1.7159801400000001E6
444 445 -8.562395700000001E5
445 444 -8.597405700000001E5
445 445 1.7159801400000001E6
445 446 -8.562395700000001E5
446 445 -8.597405700000001E5
446 446 1.7159801400000001E6
446 447 -8.562395700000001E5
447 446 -8.597405700000001E5
447 447 1.7159801400000001E6
447 448 -8.562395700000001E5
448 447 -8.597405700000001E5
448 448 1.7159801400000001E6
448 449 -8.562395700000001E5
449 448 -8.597405700000001E5
449 449 1.7159801400000001E6
449 450 -8.562395700000001E5
450 449 -8.597405700000001E5
450 450 1.7159801400000001E6
450 451 -8.562395700000001E5
451 450 -8.597405700000001E5
451 451 1.7159801400000001E6
451 452 -8.562395700000001E5
452 451 -8.597405700000001E5
452 452 1.7159801400000001E6
452 453 -8.562395700000001E5
453 452 -8.597405700000001E5
453 453 1.7159801400000001E6
453 454 -8.562395700000001E5
454 453 -8.597405700000001E5
454 454 1.7159801400000001E6
454 455 -8.562395700000001E5
455 454 -8.597405700000001E5
455 455 1.7159801400000001E6
455 456 -8.562395700000001E5
456 455 -8.597405700000001E5
456 456 1.7159801400000001E6
456 457 -8.562395700000001E5
457 456 -8.597405700000001E5
457 457 1.7159801400000001E6
457 458 -8.562395700000001E5
458 457 -8.597405700000001E5
458 458 1.7159801400000001E6
458 459 -8.562395700000001E5
459 458 -8.597405700000001E5
459 459 1.7159801400000001E6
459 460 -8.562395700000001E5
460 459 -8.597405700000001E5
460 460 1.7159801400000001E6
460 461 -8.562395700000001E5
461 460 -8.597405700000001E5
461 461 1.7159801400000001E6
461 462 -8.562395700000001E5
462 461 -8.597405700000001E5
462 462 1.7159801400000001E6
462 463 -8.562395700000001E5
463 462 -8.597405700000001E5
463 463 1.7159801400000001E6
463 464 -8.562395700000001E5
464 463 -8.597405700000001E5
464 464 1.7159801400000001E6
464 465 -8.562395700000001E5
465 464 -8.597405700000001E5
465 465 1.7159801400000001E6
465 466 -8.562395700000001E5
466 465 -8.597405700000001E5
466 466 1.7159801400000001E6
466 467 -8.562395700000001E5
467 466 -8.597405700000001E5
467 467 1.7159801400000001E6
467 468 -8.562395700000001E5
468 467 -8.597405700000001E5
468 468 1.7159801400000001E6
468 469 -8.562395700000001E5
469 468 -8.597405700000001E5
469 469 1.7159801400000001E6
469 470 -8.562395700000001E5
470 469 -8.597405700000001E5
470 470 1.7159801400000001E6
470 471 -8.562395700000001E5
471 470 -8.597405700000001E5
471 471 1.7159801400000001E6
471 472 -8.562395700000001E5
472 471 -8.597405700000001E5
472 472 1.7159801400000001E6
472 473 -8.562395700000001E5
473 472 -8.597405700000001E5
473 473 1.7159801400000001E6
473 474 -8.562395700000001E5
474 473 -8.597405700000001E5
474 474 1.7159801400000001E6
474 475 -8.562395700000001E5
475 474 -8.597405700000001E5
475 475 1.7159801400000001E6
475 476 -8.562395700000001E5
476 475 -8.597405700000001E5
476 476 1.7159801400000001E6
476 477 -8.562395700000001E5
477 476 -8.597405700000001E5
477 477 1.7159801400000001E6
477 478 -8.562395700000001E5
478 477 -8.597405700000001E5
478 478 1.7159801400000001E6
478 479 -8.562395700000001E5
479 478 -8.597405700000001E5
479 479 1.7159801400000001E6
479 480 -8.562395700000001E5
480 479 -8.597405700000001E5
480 480 1.7159801400000001E6
480 481 -8.562395700000001E5
481 480 -8.597405700000001E5
481 481 1.7159801400000001E6
481 482 -8.562395700000001E5
482 481 -8.597405700000001E5
482 482 1.7159801400000001E6
482 483 -8.562395700000001E5
483 482 -8.597405700000001E5
483 483 1.7159801400000001E6
483 484 -8.562395700000001E5
484 483 -8.597405700000001E5
484 484 1.7159801400000001E6
484 485 -8.562395700000001E5
485 484 -8.597405700000001E5
485 485 1.7159801400000001E6
485 486 -8.562395700000001E5
486 485 -8.597405700000001E5
486 486 1.7159801400000001E6
486 487 -8.562395700000001E5
487 486 -8.597405700000001E5
487 487 1.7159801400000001E6
487 488 -8.562395700000001E5
488 487 -8.597405700000001E5
488 488 1.7159801400000001E6
488 489 -8.562395700000001E5
489 488 -8.597405700000001E5
489 489 1.7159801400000001E6
489 490 -8.562395700000001E5
490 489 -8.597405700000001E5
490 490 1.7159801400000001E6
490 491 -8.562395700000001E5
491 490 -8.597405700000001E5
491 491 1.7159801400000001E6
491 492 -8.562395700000001E5
492 491 -8.597405700000001E5
492 492 1.7159801400000001E6
492 493 -8.562395700000001E5
493 492 -8.597405700000001E5
493 493 1.7159801400000001E6
493 494 -8.562395700000001E5
494 493 -8.597405700000001E5
494 494 1.7159801400000001E6
494 495 -8.562395700000001E5
495 494 -8.597405700000001E5
495 495 1.7159801400000001E6
495 496 -8.562395700000001E5
496 495 -8.597405700000001E5
496 496 1.7159801400000001E6
496 497 -8.562395700000001E5
497 496 -8.597405700000001E5
497 497 1.7159801400000001E6
497 498 -8.562395700000001E5
498 497 -8.597405700000001E5
498 498 1.7159801400000001E6
498 499 -8.562395700000001E5
499 498 -8.597405700000001E5
499 499 1.7159801400000001E6
499 500 -8.562395700000001E5
500 499 -8.597405700000001E5
500 500 1.7159801400000001E6
500 501 -8.562395700000001E5
501 500 -8.597405700000001E5
501 501 1.7159801400000001E6
501 502 -8.562395700000001E5
502 501 -8.597405700000001E5
502 502 1.7159801400000001E6
502 503 -8.562395700000001E5
503 502 -8.597405700000001E5
503 503 1.7159801400000001E6
503 504 -8.562395700000001E5
504 503 -8.597405700000001E5
504 504 1.7159801400000001E6
504 505 -8.562395700000001E5
505 504 -8.597405700000001E5
505 505 1.7159801400000001E6
505 506 -8.562395700000001E5
506 505 -8.597405700000001E5
506 506 1.7159801400000001E6
506 507 -8.562395700000001E5
507 506 -8.597405700000001E5
507 507 1.7159801400000001E6
507 508 -8.562395700000001E5
508 507 -8.597405700000001E5
508 508 1.7159801400000001E6
508 509 -8.562395700000001E5
509 508 -8.597405700000001E5
509 509 1.7159801400000001E6
509 510 -8.562395700000001E5
510 509 -8.597405700000001E5
510 510 1.7159801400000001E6
510 511 -8.562395700000001E5
511 510 -8.597405700000001E5
511 511 1.7159801400000001E6
511 512 -8.562395700000001E5
512 511 -8.597405700000001E5
512 512 1.7159801400000001E6
512 513 -8.562395700000001E5
513 512 -8.597405700000001E5
513 513 1.7159801400000001E6
513 514 -8.562395700000001E5
514 513 -8.597405700000001E5
514 514 1.7159801400000001E6
514 515 -8.562395700000001E5
515 514 -8.597405700000001E5
515 515 1.7159801400000001E6
515 516 -8.562395700000001E5
516 515 -8.597405700000001E5
516 516 1.7159801400000001E6
516 517 -8.562395700000001E5
517 516 -8.597405700000001E5
517 517 1.7159801400000001E6
517 518 -8.562395700000001E5
518 517 -8.597405700000001E5
518 518 1.7159801400000001E6
518 519 -8.562395700000001E5
519 518 -8.597405700000001E5
519 519 1.7159801400000001E6
519 520 -8.562395700000001E5
520 519 -8.597405700000001E5
520 520 1.7159801400000001E6
520 521 -8.562395700000001E5
521 520 -8.597405700000001E5
521 521 1.7159801400000001E6
521 522 -8.562395700000001E5
522 521 -8.597405700000001E5
522 522 1.7159801400000001E6
522 523 -8.562395700000001E5
523 522 -8.597405700000001E5
523 523 1.7159801400000001E6
523 524 -8.562395700000001E5
524 523 -8.597405700000001E5
524 524 1.7159801400000001E6
524 525 -8.562395700000001E5
525 524 -8.597405700000001E5
525 525 1.7159801400000001E6
525 526 -8.562395700000001E5
526 525 -8.597405700000001E5
526 526 1.7159801400000001E6
526 527 -8.562395700000001E5
527 526 -8.597405700000001E5
527 527 1.7159801400000001E6
527 528 -8.562395700000001E5
528 527 -8.597405700000001E5
528 528 1.7159801400000001E6
528 529 -8.562395700000001E5
529 528 -8.597405700000001E5
529 529 1.7159801400000001E6
529 530 -8.562395700000001E5
530 529 -8.597405700000001E5
530 530 1.7159801400000001E6
530 531 -8.562395700000001E5
531 530 -8.597405700000001E5
531 531 1.7159801400000001E6
531 532 -8.562395700000001E5
532 531 -8.597405700000001E5
532 532 1.7159801400000001E6
532 533 -8.562395700000001E5
533 532 -8.597405700000001E5
533 533 1.7159801400000001E6
533 534 -8.562395700000001E5
534 533 -8.597405700000001E5
534 534 1.7159801400000001E6
534 535 -8.562395700000001E5
535 534 -8.597405700000001E5
535 535 1.7159801400000001E6
535 536 -8.562395700000001E5
536 535 -8.597405700000001E5
536 536 1.7159801400000001E6
536 537 -8.562395700000001E5
537 536 -8.597405700000001E5
537 537 1.7159801400000001E6
537 538 -8.562395700000001E5
538 537 -8.597405700000001E5
538 538 1.7159801400000001E6
538 539 -8.562395700000001E5
539 538 -8.597405700000001E5
539 539 1.7159801400000001E6
539 540 -8.562395700000001E5
540 539 -8.597405700000001E5
540 540 1.7159801400000001E6
540 541 -8.562395700000001E5
541 540 -8.597405700000001E5
541 541 1.7159801400000001E6
541 542 -8.562395700000001E5
542 541 -8.597405700000001E5
542 542 1.7159801400000001E6
542 543 -8.562395700000001E5
543 542 -8.597405700000001E5
543 543 1.7159801400000001E6
543 544 -8.562395700000001E5
544 543 -8.597405700000001E5
544 544 1.7159801400000001E6
544 545 -8.562395700000001E5
545 544 -8.597405700000001E5
545 545 1.7159801400000001E6
545 546 -8.562395700000001E5
546 545 -8.597405700000001E5
546 546 1.7159801400000001E6
546 547 -8.562395700000001E5
547 546 -8.597405700000001E5
547 547 1.7159801400000001E6
547 548 -8.562395700000001E5
548 547 -8.597405700000001E5
548 548 1.7159801400000001E6
548 549 -8.562395700000001E5
549 548 -8.597405700000001E5
549 549 1.7159801400000001E6
549 550 -8.562395700000001E5
550 549 -8.597405700000001E5
550 550 1.7159801400000001E6
550 551 -8.562395700000001E5
551 550 -8.597405700000001E5
551 551 1.7159801400000001E6
551 552 -8.562395700000001E5
552 551 -8.597405700000001E5
552 552 1.7159801400000001E6
552 553 -8.562395700000001E5
553 552 -8.597405700000001E5
553 553 1.7159801400000001E6
553 554 -8.562395700000001E5
554 553 -8.597405700000001E5
554 554 1.7159801400000001E6
554 555 -8.562395700000001E5
555 554 -8.597405700000001E5
555 555 1.7159801400000001E6
555 556 -8.562395700000001E5
556 555 -8.597405700000001E5
556 556 1.7159801400000001E6
556 557 -8.562395700000001E5
557 556 -8.597405700000001E5
557 557 1.7159801400000001E6
557 558 -8.562395700000001E5
558 557 -8.597405700000001E5
558 558 1.7159801400000001E6
558 559 -8.562395700000001E5
559 558 -8.597405700000001E5
559 559 1.7159801400000001E6
559 560 -8.562395700000001E5
560 559 -8.597405700000001E5
560 560 1.7159801400000001E6
560 561 -8.562395700000001E5
561 560 -8.597405700000001E5
561 561 1.7159801400000001E6
561 562 -8.562395700000001E5
562 561 -8.597405700000001E5
562 562 1.7159801400000001E6
562 563 -8.562395700000001E5
563 562 -8.597405700000001E5
563 563 1.7159801400000001E6
563 564 -8.562395700000001E5
564 563 -8.597405700000001E5
564 564 1.7159801400000001E6
564 565 -8.562395700000001E5
565 564 -8.597405700000001E5
565 565 1.7159801400000001E6
565 566 -8.562395700000001E5
566 565 -8.597405700000001E5
566 566 1.7159801400000001E6
566 567 -8.562395700000001E5
567 566 -8.597405700000001E5
567 567 1.7159801400000001E6
567 568 -8.562395700000001E5
568 567 -8.597405700000001E5
568 568 1.7159801400000001E6
568 569 -8.562395700000001E5
569 568 -8.597405700000001E5
569 569 1.7159801400000001E6
569 570 -8.562395700000001E5
570 569 -8.597405700000001E5
570 570 1.7159801400000001E6
570 571 -8.562395700000001E5
571 570 -8.597405700000001E5
571 571 1.7159801400000001E6
571 572 -8.562395700000001E5
572 571 -8.597405700000001E5
572 572 1.7159801400000001E6
572 573 -8.562395700000001E5
573 572 -8.597405700000001E5
573 573 1.7159801400000001E6
573 574 -8.562395700000001E5
574 573 -8.597405700000001E5
574 574 1.7159801400000001E6
574 575 -8.562395700000001E5
575 574 -8.597405700000001E5
575 575 1.7159801400000001E6
575 576 -8.562395700000001E5
576 575 -8.597405700000001E5
576 576 1.7159801400000001E6
576 577 -8.562395700000001E5
577 576 -8.597405700000001E5
577 577 1.7159801400000001E6
577 578 -8.562395700000001E5
578 577 -8.597405700000001E5
578 578 1.7159801400000001E6
578 579 -8.562395700000001E5
579 578 -8.597405700000001E5
579 579 1.7159801400000001E6
579 580 -8.562395700000001E5
580 579 -8.597405700000001E5
580 580 1.7159801400000001E6
580 581 -8.562395700000001E5
581 580 -8.597405700000001E5
581 581 1.7159801400000001E6
581 582 -8.562395700000001E5
582 581 -8.597405700000001E5
582 582 1.7159801400000001E6
582 583 -8.562395700000001E5
583 582 -8.597405700000001E5
583 583 1.7159801400000001E6
583 584 -8.562395700000001E5
584 583 -8.597405700000001E5
584 584 1.7159801400000001E6
584 585 -8.562395700000001E5
585 584 -8.597405700000001E5
585 585 1.7159801400000001E6
585 586 -8.562395700000001E5
586 585 -8.597405700000001E5
586 586 1.7159801400000001E6
586 587 -8.562395700000001E5
587 586 -8.597405700000001E5
587 587 1.7159801400000001E6
587 588 -8.562395700000001E5
588 587 -8.597405700000001E5
588 588 1.7159801400000001E6
588 589 -8.562395700000001E5
589 588 -8.597405700000001E5
589 589 1.7159801400000001E6
589 590 -8.562395700000001E5
590 589 -8.597405700000001E5
590 590 1.7159801400000001E6
590 591 -8.562395700000001E5
591 590 -8.597405700000001E5
591 591 1.7159801400000001E6
591 592 -8.562395700000001E5
592 591 -8.597405700000001E5
592 592 1.7159801400000001E6
592 593 -8.562395700000001E5
593 592 -8.597405700000001E5
593 593 1.7159801400000001E6
593 594 -8.562395700000001E5
594 593 -8.597405700000001E5
594 594 1.7159801400000001E6
594 595 -8.562395700000001E5
595 594 -8.597405700000001E5
595 595 1.7159801400000001E6
595 596 -8.562395700000001E5
596 595 -8.597405700000001E5
596 596 1.7159801400000001E6
596 597 -8.562395700000001E5
597 596 -8.597405700000001E5
597 597 1.7159801400000001E6
597 598 -8.562395700000001E5
598 597 -8.597405700000001E5
598 598 1.7159801400000001E6
598 599 -8.562395700000001E5
599 598 -8.597405700000001E5
599 599 1.7159801400000001E6
599 600 -8.562395700000001E5
600 599 -8.597405700000001E5
600 600 1.7159801400000001E6
600 601 -8.562395700000001E5
601 600 -8.597405700000001E5
601 601 1.7159801400000001E6
601 602 -8.562395700000001E5
602 601 -8.597405700000001E5
602 602 1.7159801400000001E6
602 603 -8.562395700000001E5
603 602 -8.597405700000001E5
603 603 1.7159801400000001E6
603 604 -8.562395700000001E5
604 603 -8.597405700000001E5
604 604 1.7159801400000001E6
604 605 -8.562395700000001E5
605 604 -8.597405700000001E5
605 605 1.7159801400000001E6
605 606 -8.562395700000001E5
606 605 -8.597405700000001E5
606 606 1.7159801400000001E6
606 607 -8.562395700000001E5
607 606 -8.597405700000001E5
607 607 1.7159801400000001E6
607 608 -8.562395700000001E5
608 607 -8.597405700000001E5
608 608 1.7159801400000001E6
608 609 -8.562395700000001E5
609 608 -8.597405700000001E5
609 609 1.7159801400000001E6
609 610 -8.562395700000001E5
610 609 -8.597405700000001E5
610 610 1.7159801400000001E6
610 611 -8.562395700000001E5
611 610 -8.597405700000001E5
611 611 1.7159801400000001E6
611 612 -8.562395700000001E5
612 611 -8.597405700000001E5
612 612 1.7159801400000001E6
612 613 -8.562395700000001E5
613 612 -8.597405700000001E5
613 613 1.7159801400000001E6
613 614 -8.562395700000001E5
614 613 -8.597405700000001E5
614 614 1.7159801400000001E6
614 615 -8.562395700000001E5
615 614 -8.597405700000001E5
615 615 1.7159801400000001E6
615 616 -8.562395700000001E5
616 615 -8.597405700000001E5
616 616 1.7159801400000001E6
616 617 -8.562395700000001E5
617 616 -8.597405700000001E5
617 617 1.7159801400000001E6
617 618 -8.562395700000001E5
618 617 -8.597405700000001E5
618 618 1.7159801400000001E6
618 619 -8.562395700000001E5
619 618 -8.597405700000001E5
619 619 1.7159801400000001E6
619 620 -8.562395700000001E5
620 619 -8.597405700000001E5
620 620 1.7159801400000001E6
620 621 -8.562395700000001E5
621 620 -8.597405700000001E5
621 621 1.7159801400000001E6
621 622 -8.562395700000001E5
622 621 -8.597405700000001E5
622 622 1.7159801400000001E6
622 623 -8.562395700000001E5
623 622 -8.597405700000001E5
623 623 1.7159801400000001E6
623 624 -8.562395700000001E5
624 623 -8.597405700000001E5
624 624 1.7159801400000001E6
624 625 -8.562395700000001E5
625 624 -8.597405700000001E5
625 625 1.7159801400000001E6
625 626 -8.562395700000001E5
626 625 -8.597405700000001E5
626 626 1.7159801400000001E6
626 627 -8.562395700000001E5
627 626 -8.597405700000001E5
627 627 1.7159801400000001E6
627 628 -8.562395700000001E5
628 627 -8.597405700000001E5
628 628 1.7159801400000001E6
628 629 -8.562395700000001E5
629 628 -8.597405700000001E5
629 629 1.7159801400000001E6
629 630 -8.562395700000001E5
630 629 -8.597405700000001E5
630 630 1.7159801400000001E6
630 631 -8.562395700000001E5
631 630 -8.597405700000001E5
631 631 1.7159801400000001E6
631 632 -8.562395700000001E5
632 631 -8.597405700000001E5
632 632 1.7159801400000001E6
632 633 -8.562395700000001E5
633 632 -8.597405700000001E5
633 633 1.7159801400000001E6
633 634 -8.562395700000001E5
634 633 -8.597405700000001E5
634 634 1.7159801400000001E6
634 635 -8.562395700000001E5
635 634 -8.597405700000001E5
635 635 1.7159801400000001E6
635 636 -8.562395700000001E5
636 635 -8.597405700000001E5
636 636 1.7159801400000001E6
636 637 -8.562395700000001E5
637 636 -8.597405700000001E5
637 637 1.7159801400000001E6
637 638 -8.562395700000001E5
638 637 -8.597405700000001E5
638 638 1.7159801400000001E6
638 639 -8.562395700000001E5
639 638 -8.597405700000001E5
639 639 1.7159801400000001E6
639 640 -8.562395700000001E5
640 639 -8.597405700000001E5
640 640 1.7159801400000001E6
640 641 -8.562395700000001E5
641 640 -8.597405700000001E5
641 641 1.7159801400000001E6
641 642 -8.562395700000001E5
642 641 -8.597405700000001E5
642 642 1.7159801400000001E6
642 643 -8.562395700000001E5
643 642 -8.597405700000001E5
643 643 1.7159801400000001E6
643 644 -8.562395700000001E5
644 643 -8.597405700000001E5
644 644 1.7159801400000001E6
644 645 -8.562395700000001E5
645 644 -8.597405700000001E5
645 645 1.7159801400000001E6
645 646 -8.562395700000001E5
646 645 -8.597405700000001E5
646 646 1.7159801400000001E6
646 647 -8.562395700000001E5
647 646 -8.597405700000001E5
647 647 1.7159801400000001E6
647 648 -8.562395700000001E5
648 647 -8.597405700000001E5
648 648 1.7159801400000001E6
648 649 -8.562395700000001E5
649 648 -8.597405700000001E5
649 649 1.7159801400000001E6
649 650 -8.562395700000001E5
650 649 -8.597405700000001E5
650 650 1.7159801400000001E6
650 651 -8.562395700000001E5
651 650 -8.597405700000001E5
651 651 1.7159801400000001E6
651 652 -8.562395700000001E5
652 651 -8.597405700000001E5
652 652 1.7159801400000001E6
652 653 -8.562395700000001E5
653 652 -8.597405700000001E5
653 653 1.7159801400000001E6
653 654 -8.562395700000001E5
654 653 -8.597405700000001E5
654 654 1.7159801400000001E6
654 655 -8.562395700000001E5
655 654 -8.597405700000001E5
655 655 1.7159801400000001E6
655 656 -8.562395700000001E5
656 655 -8.597405700000001E5
656 656 1.7159801400000001E6
656 657 -8.562395700000001E5
657 656 -8.597405700000001E5
657 657 1.7159801400000001E6
657 658 -8.562395700000001E5
658 657 -8.597405700000001E5
658 658 1.7159801400000001E6
658 659 -8.562395700000001E5
659 658 -8.597405700000001E5
659 659 1.7159801400000001E6
659 660 -8.562395700000001E5
660 659 -8.597405700000001E5
660 660 1.7159801400000001E6
660 661 -8.562395700000001E5
661 660 -8.597405700000001E5
661 661 1.7159801400000001E6
661 662 -8.562395700000001E5
662 661 -8.597405700000001E5
662 662 1.7159801400000001E6
662 663 -8.562395700000001E5
663 662 -8.597405700000001E5
663 663 1.7159801400000001E6
663 664 -8.562395700000001E5
664 663 -8.597405700000001E5
664 664 1.7159801400000001E6
664 665 -8.562395700000001E5
665 664 -8.597405700000001E5
665 665 1.7159801400000001E6
665 666 -8.562395700000001E5
666 665 -8.597405700000001E5
666 666 1.7159801400000001E6
666 667 -8.562395700000001E5
667 666 -8.597405700000001E5
667 667 1.7159801400000001E6
667 668 -8.562395700000001E5
668 667 -8.597405700000001E5
668 668 1.7159801400000001E6
668 669 -8.562395700000001E5
669 668 -8.597405700000001E5
669 669 1.7159801400000001E6
669 670 -8.562395700000001E5
670 669 -8.597405700000001E5
670 670 1.7159801400000001E6
670 671 -8.562395700000001E5
671 670 -8.597405700000001E5
671 671 1.7159801400000001E6
671 672 -8.562395700000001E5
672 671 -8.597405700000001E5
672 672 1.7159801400000001E6
672 673 -8.562395700000001E5
673 672 -8.597405700000001E5
673 673 1.7159801400000001E6
673 674 -8.562395700000001E5
674 673 -8.597405700000001E5
674 674 1.7159801400000001E6
674 675 -8.562395700000001E5
675 674 -8.597405700000001E5
675 675 1.7159801400000001E6
675 676 -8.562395700000001E5
676 675 -8.597405700000001E5
676 676 1.7159801400000001E6
676 677 -8.562395700000001E5
677 676 -8.597405700000001E5
677 677 1.7159801400000001E6
677 678 -8.562395700000001E5
678 677 -8.597405700000001E5
678 678 1.7159801400000001E6
678 679 -8.562395700000001E5
679 678 -8.597405700000001E5
679 679 1.7159801400000001E6
679 680 -8.562395700000001E5
680 679 -8.597405700000001E5
680 680 1.7159801400000001E6
680 681 -8.562395700000001E5
681 680 -8.597405700000001E5
681 681 1.7159801400000001E6
681 682 -8.562395700000001E5
682 681 -8.597405700000001E5
682 682 1.7159801400000001E6
682 683 -8.562395700000001E5
683 682 -8.597405700000001E5
683 683 1.7159801400000001E6
683 684 -8.562395700000001E5
684 683 -8.597405700000001E5
684 684 1.7159801400000001E6
684 685 -8.562395700000001E5
685 684 -8.597405700000001E5
685 685 1.7159801400000001E6
685 686 -8.562395700000001E5
686 685 -8.597405700000001E5
686 686 1.7159801400000001E6
686 687 -8.562395700000001E5
687 686 -8.597405700000001E5
687 687 1.7159801400000001E6
687 688 -8.562395700000001E5
688 687 -8.597405700000001E5
688 688 1.7159801400000001E6
688 689 -8.562395700000001E5
689 688 -8.597405700000001E5
689 689 1.7159801400000001E6
689 690 -8.562395700000001E5
690 689 -8.597405700000001E5
690 690 1.7159801400000001E6
690 691 -8.562395700000001E5
691 690 -8.597405700000001E5
691 691 1.7159801400000001E6
691 692 -8.562395700000001E5
692 691 -8.597405700000001E5
692 692 1.7159801400000001E6
692 693 -8.562395700000001E5
693 692 -8.597405700000001E5
693 693 1.7159801400000001E6
693 694 -8.562395700000001E5
694 693 -8.597405700000001E5
694 694 1.7159801400000001E6
694 695 -8.562395700000001E5
695 694 -8.597405700000001E5
695 695 1.7159801400000001E6
695 696 -8.562395700000001E5
696 695 -8.597405700000001E5
696 696 1.7159801400000001E6
696 697 -8.562395700000001E5
697 696 -8.597405700000001E5
697 697 1.7159801400000001E6
697 698 -8.562395700000001E5
698 697 -8.597405700000001E5
698 698 1.7159801400000001E6
698 699 -8.562395700000001E5
699 698 -8.597405700000001E5
699 699 1.7159801400000001E6
699 700 -8.562395700000001E5
700 699 -8.597405700000001E5
700 700 1.7159801400000001E6
700 701 -8.562395700000001E5
701 700 -8.597405700000001E5
701 701 1.7159801400000001E6
701 702 -8.562395700000001E5
702 701 -8.597405700000001E5
702 702 1.7159801400000001E6
702 703 -8.562395700000001E5
703 702 -8.597405700000001E5
703 703 1.7159801400000001E6
703 704 -8.562395700000001E5
704 703 -8.597405700000001E5
704 704 1.7159801400000001E6
704 705 -8.562395700000001E5
705 704 -8.597405700000001E5
705 705 1.7159801400000001E6
705 706 -8.562395700000001E5
706 705 -8.597405700000001E5
706 706 1.7159801400000001E6
706 707 -8.562395700000001E5
707 706 -8.597405700000001E5
707 707 1.7159801400000001E6
707 708 -8.562395700000001E5
708 707 -8.597405700000001E5
708 708 1.7159801400000001E6
708 709 -8.562395700000001E5
709 708 -8.597405700000001E5
709 709 1.7159801400000001E6
709 710 -8.562395700000001E5
710 709 -8.597405700000001E5
710 710 1.7159801400000001E6
710 711 -8.562395700000001E5
711 710 -8.597405700000001E5
711 711 1.7159801400000001E6
711 712 -8.562395700000001E5
712 711 -8.597405700000001E5
712 712 1.7159801400000001E6
712 713 -8.562395700000001E5
713 712 -8.597405700000001E5
713 713 1.7159801400000001E6
713 714 -8.562395700000001E5
714 713 -8.597405700000001E5
714 714 1.7159801400000001E6
714 715 -8.562395700000001E5
715 714 -8.597405700000001E5
715 715 1.7159801400000001E6
715 716 -8.562395700000001E5
716 715 -8.597405700000001E5
716 716 1.7159801400000001E6
716 717 -8.562395700000001E5
717 716 -8.597405700000001E5
717 717 1.7159801400000001E6
717 718 -8.562395700000001E5
718 717 -8.597405700000001E5
718 718 1.7159801400000001E6
718 719 -8.562395700000001E5
719 718 -8.597405700000001E5
719 719 1.7159801400000001E6
719 720 -8.562395700000001E5
720 719 -8.597405700000001E5
720 720 1.7159801400000001E6
720 721 -8.562395700000001E5
721 720 -8.597405700000001E5
721 721 1.7159801400000001E6
721 722 -8.562395700000001E5
722 721 -8.597405700000001E5
722 722 1.7159801400000001E6
722 723 -8.562395700000001E5
723 722 -8.597405700000001E5
723 723 1.7159801400000001E6
723 724 -8.562395700000001E5
724 723 -8.597405700000001E5
724 724 1.7159801400000001E6
724 725 -8.562395700000001E5
725 724 -8.597405700000001E5
725 725 1.7159801400000001E6
725 726 -8.562395700000001E5
726 725 -8.597405700000001E5
726 726 1.7159801400000001E6
726 727 -8.562395700000001E5
727 726 -8.597405700000001E5
727 727 1.7159801400000001E6
727 728 -8.562395700000001E5
728 727 -8.597405700000001E5
728 728 1.7159801400000001E6
728 729 -8.562395700000001E5
729 728 -8.597405700000001E5
729 729 1.7159801400000001E6
729 730 -8.562395700000001E5
730 729 -8.597405700000001E5
730 730 1.7159801400000001E6
730 731 -8.562395700000001E5
731 730 -8.597405700000001E5
731 731 1.7159801400000001E6
731 732 -8.562395700000001E5
732 731 -8.597405700000001E5
732 732 1.7159801400000001E6
732 733 -8.562395700000001E5
733 732 -8.597405700000001E5
733 733 1.7159801400000001E6
733 734 -8.562395700000001E5
734 733 -8.597405700000001E5
734 734 1.7159801400000001E6
734 735 -8.562395700000001E5
735 734 -8.597405700000001E5
735 735 1.7159801400000001E6
735 736 -8.562395700000001E5
736 735 -8.597405700000001E5
736 736 1.7159801400000001E6
736 737 -8.562395700000001E5
737 736 -8.597405700000001E5
737 737 1.7159801400000001E6
737 738 -8.562395700000001E5
738 737 -8.597405700000001E5
738 738 1.7159801400000001E6
738 739 -8.562395700000001E5
739 738 -8.597405700000001E5
739 739 1.7159801400000001E6
739 740 -8.562395700000001E5
740 739 -8.597405700000001E5
740 740 1.7159801400000001E6
740 741 -8.562395700000001E5
741 740 -8.597405700000001E5
741 741 1.7159801400000001E6
741 742 -8.562395700000001E5
742 741 -8.597405700000001E5
742 742 1.7159801400000001E6
742 743 -8.562395700000001E5
743 742 -8.597405700000001E5
743 743 1.7159801400000001E6
743 744 -8.562395700000001E5
744 743 -8.597405700000001E5
744 744 1.7159801400000001E6
744 745 -8.562395700000001E5
745 744 -8.597405700000001E5
745 745 1.7159801400000001E6
745 746 -8.562395700000001E5
746 745 -8.597405700000001E5
746 746 1.7159801400000001E6
746 747 -8.562395700000001E5
747 746 -8.597405700000001E5
747 747 1.7159801400000001E6
747 748 -8.562395700000001E5
748 747 -8.597405700000001E5
748 748 1.7159801400000001E6
748 749 -8.562395700000001E5
749 748 -8.597405700000001E5
749 749 1.7159801400000001E6
749 750 -8.562395700000001E5
750 749 -8.597405700000001E5
750 750 1.7159801400000001E6
750 751 -8.562395700000001E5
751 750 -8.597405700000001E5
751 751 1.7159801400000001E6
751 752 -8.562395700000001E5
752 751 -8.597405700000001E5
752 752 1.7159801400000001E6
752 753 -8.562395700000001E5
753 752 -8.597405700000001E5
753 753 1.7159801400000001E6
753 754 -8.562395700000001E5
754 753 -8.597405700000001E5
754 754 1.7159801400000001E6
754 755 -8.562395700000001E5
755 754 -8.597405700000001E5
755 755 1.7159801400000001E6
755 756 -8.562395700000001E5
756 755 -8.597405700000001E5
756 756 1.7159801400000001E6
756 757 -8.562395700000001E5
757 756 -8.597405700000001E5
757 757 1.7159801400000001E6
757 758 -8.562395700000001E5
758 757 -8.597405700000001E5
758 758 1.7159801400000001E6
758 759 -8.562395700000001E5
759 758 -8.597405700000001E5
759 759 1.7159801400000001E6
759 760 -8.562395700000001E5
760 759 -8.597405700000001E5
760 760 1.7159801400000001E6
760 761 -8.562395700000001E5
761 760 -8.597405700000001E5
761 761 1.7159801400000001E6
761 762 -8.562395700000001E5
762 761 -8.597405700000001E5
762 762 1.7159801400000001E6
762 763 -8.562395700000001E5
763 762 -8.597405700000001E5
763 763 1.7159801400000001E6
763 764 -8.562395700000001E5
764 763 -8.597405700000001E5
764 764 1.7159801400000001E6
764 765 -8.562395700000001E5
765 764 -8.597405700000001E5
765 765 1.7159801400000001E6
765 766 -8.562395700000001E5
766 765 -8.597405700000001E5
766 766 1.7159801400000001E6
766 767 -8.562395700000001E5
767 766 -8.597405700000001E5
767 767 1.7159801400000001E6
767 768 -8.562395700000001E5
768 767 -8.597405700000001E5
768 768 1.7159801400000001E6
768 769 -8.562395700000001E5
769 768 -8.597405700000001E5
769 769 1.7159801400000001E6
769 770 -8.562395700000001E5
770 769 -8.597405700000001E5
770 770 1.7159801400000001E6
770 771 -8.562395700000001E5
771 770 -8.597405700000001E5
771 771 1.7159801400000001E6
771 772 -8.562395700000001E5
772 771 -8.597405700000001E5
772 772 1.7159801400000001E6
772 773 -8.562395700000001E5
773 772 -8.597405700000001E5
773 773 1.7159801400000001E6
773 774 -8.562395700000001E5
774 773 -8.597405700000001E5
774 774 1.7159801400000001E6
774 775 -8.562395700000001E5
775 774 -8.597405700000001E5
775 775 1.7159801400000001E6
775 776 -8.562395700000001E5
776 775 -8.597405700000001E5
776 776 1.7159801400000001E6
776 777 -8.562395700000001E5
777 776 -8.597405700000001E5
777 777 1.7159801400000001E6
777 778 -8.562395700000001E5
778 777 -8.597405700000001E5
778 778 1.7159801400000001E6
778 779 -8.562395700000001E5
779 778 -8.597405700000001E5
779 779 1.7159801400000001E6
779 780 -8.562395700000001E5
780 779 -8.597405700000001E5
780 780 1.7159801400000001E6
780 781 -8.562395700000001E5
781 780 -8.597405700000001E5
781 781 1.7159801400000001E6
781 782 -8.562395700000001E5
782 781 -8.597405700000001E5
782 782 1.7159801400000001E6
782 783 -8.562395700000001E5
783 782 -8.597405700000001E5
783 783 1.7159801400000001E6
783 784 -8.562395700000001E5
784 783 -8.597405700000001E5
784 784 1.7159801400000001E6
784 785 -8.562395700000001E5
785 784 -8.597405700000001E5
785 785 1.7159801400000001E6
785 786 -8.562395700000001E5
786 785 -8.597405700000001E5
786 786 1.7159801400000001E6
786 787 -8.562395700000001E5
787 786 -8.597405700000001E5
787 787 1.7159801400000001E6
787 788 -8.562395700000001E5
788 787 -8.597405700000001E5
788 788 1.7159801400000001E6
788 789 -8.562395700000001E5
789 788 -8.597405700000001E5
789 789 1.7159801400000001E6
789 790 -8.562395700000001E5
790 789 -8.597405700000001E5
790 790 1.7159801400000001E6
790 791 -8.562395700000001E5
791 790 -8.597405700000001E5
791 791 1.7159801400000001E6
791 792 -8.562395700000001E5
792 791 -8.597405700000001E5
792 792 1.7159801400000001E6
792 793 -8.562395700000001E5
793 792 -8.597405700000001E5
793 793 1.7159801400000001E6
793 794 -8.562395700000001E5
794 793 -8.597405700000001E5
794 794 1.7159801400000001E6
794 795 -8.562395700000001E5
795 794 -8.597405700000001E5
795 795 1.7159801400000001E6
795 796 -8.562395700000001E5
796 795 -8.597405700000001E5
796 796 1.7159801400000001E6
796 797 -8.562395700000001E5
797 796 -8.597405700000001E5
797 797 1.7159801400000001E6
797 798 -8.562395700000001E5
798 797 -8.597405700000001E5
798 798 1.7159801400000001E6
798 799 -8.562395700000001E5
799 798 -8.597405700000001E5
799 799 1.7159801400000001E6
799 800 -8.562395700000001E5
800 799 -8.597405700000001E5
800 800 1.7159801400000001E6
800 801 -8.562395700000001E5
801 800 -8.597405700000001E5
801 801 1.7159801400000001E6
801 802 -8.562395700000001E5
802 801 -8.597405700000001E5
802 802 1.7159801400000001E6
802 803 -8.562395700000001E5
803 802 -8.597405700000001E5
803 803 1.7159801400000001E6
803 804 -8.562395700000001E5
804 803 -8.597405700000001E5
804 804 1.7159801400000001E6
804 805 -8.562395700000001E5
805 804 -8.597405700000001E5
805 805 1.7159801400000001E6
805 806 -8.562395700000001E5
806 805 -8.597405700000001E5
806 806 1.7159801400000001E6
806 807 -8.562395700000001E5
807 806 -8.597405700000001E5
807 807 1.7159801400000001E6
807 808 -8.562395700000001E5
808 807 -8.597405700000001E5
808 808 1.7159801400000001E6
808 809 -8.562395700000001E5
809 808 -8.597405700000001E5
809 809 1.7159801400000001E6
809 810 -8.562395700000001E5
810 809 -8.597405700000001E5
810 810 1.7159801400000001E6
810 811 -8.562395700000001E5
811 810 -8.597405700000001E5
811 811 1.7159801400000001E6
811 812 -8.562395700000001E5
812 811 -8.597405700000001E5
812 812 1.7159801400000001E6
812 813 -8.562395700000001E5
813 812 -8.597405700000001E5
813 813 1.7159801400000001E6
813 814 -8.562395700000001E5
814 813 -8.597405700000001E5
814 814 1.7159801400000001E6
814 815 -8.562395700000001E5
815 814 -8.597405700000001E5
815 815 1.7159801400000001E6
815 816 -8.562395700000001E5
816 815 -8.597405700000001E5
816 816 1.7159801400000001E6
816 817 -8.562395700000001E5
817 816 -8.597405700000001E5
817 817 1.7159801400000001E6
817 818 -8.562395700000001E5
818 817 -8.597405700000001E5
818 818 1.7159801400000001E6
818 819 -8.562395700000001E5
819 818 -8.597405700000001E5
819 819 1.7159801400000001E6
819 820 -8.562395700000001E5
820 819 -8.597405700000001E5
820 820 1.7159801400000001E6
820 821 -8.562395700000001E5
821 820 -8.597405700000001E5
821 821 1.7159801400000001E6
821 822 -8.562395700000001E5
822 821 -8.597405700000001E5
822 822 1.7159801400000001E6
822 823 -8.562395700000001E5
823 822 -8.597405700000001E5
823 823 1.7159801400000001E6
823 824 -8.562395700000001E5
824 823 -8.597405700000001E5
824 824 1.7159801400000001E6
824 825 -8.562395700000001E5
825 824 -8.597405700000001E5
825 825 1.7159801400000001E6
825 826 -8.562395700000001E5
826 825 -8.597405700000001E5
826 826 1.7159801400000001E6
826 827 -8.562395700000001E5
827 826 -8.597405700000001E5
827 827 1.7159801400000001E6
827 828 -8.562395700000001E5
828 827 -8.597405700000001E5
828 828 1.7159801400000001E6
828 829 -8.562395700000001E5
829 828 -8.597405700000001E5
829 829 1.7159801400000001E6
829 830 -8.562395700000001E5
830 829 -8.597405700000001E5
830 830 1.7159801400000001E6
830 831 -8.562395700000001E5
831 830 -8.597405700000001E5
831 831 1.7159801400000001E6
831 832 -8.562395700000001E5
832 831 -8.597405700000001E5
832 832 1.7159801400000001E6
832 833 -8.562395700000001E5
833 832 -8.597405700000001E5
833 833 1.7159801400000001E6
833 834 -8.562395700000001E5
834 833 -8.597405700000001E5
834 834 1.7159801400000001E6
834 835 -8.562395700000001E5
835 834 -8.597405700000001E5
835 835 1.7159801400000001E6
835 836 -8.562395700000001E5
836 835 -8.597405700000001E5
836 836 1.7159801400000001E6
836 837 -8.562395700000001E5
837 836 -8.597405700000001E5
837 837 1.7159801400000001E6
837 838 -8.562395700000001E5
838 837 -8.597405700000001E5
838 838 1.7159801400000001E6
838 839 -8.562395700000001E5
839 838 -8.597405700000001E5
839 839 1.7159801400000001E6
839 840 -8.562395700000001E5
840 839 -8.597405700000001E5
840 840 1.7159801400000001E6
840 841 -8.562395700000001E5
841 840 -8.597405700000001E5
841 841 1.7159801400000001E6
841 842 -8.562395700000001E5
842 841 -8.597405700000001E5
842 842 1.7159801400000001E6
842 843 -8.562395700000001E5
843 842 -8.597405700000001E5
843 843 1.7159801400000001E6
843 844 -8.562395700000001E5
844 843 -8.597405700000001E5
844 844 1.7159801400000001E6
844 845 -8.562395700000001E5
845 844 -8.597405700000001E5
845 845 1.7159801400000001E6
845 846 -8.562395700000001E5
846 845 -8.597405700000001E5
846 846 1.7159801400000001E6
846 847 -8.562395700000001E5
847 846 -8.597405700000001E5
847 847 1.7159801400000001E6
847 848 -8.562395700000001E5
848 847 -8.597405700000001E5
848 848 1.7159801400000001E6
848 849 -8.562395700000001E5
849 848 -8.597405700000001E5
849 849 1.7159801400000001E6
849 850 -8.562395700000001E5
850 849 -8.597405700000001E5
850 850 1.7159801400000001E6
850 851 -8.562395700000001E5
851 850 -8.597405700000001E5
851 851 1.7159801400000001E6
851 852 -8.562395700000001E5
852 851 -8.597405700000001E5
852 852 1.7159801400000001E6
852 853 -8.562395700000001E5
853 852 -8.597405700000001E5
853 853 1.7159801400000001E6
853 854 -8.562395700000001E5
854 853 -8.597405700000001E5
854 854 1.7159801400000001E6
854 855 -8.562395700000001E5
855 854 -8.597405700000001E5
855 855 1.7159801400000001E6
855 856 -8.562395700000001E5
856 855 -8.597405700000001E5
856 856 1.7159801400000001E6
856 857 -8.562395700000001E5
857 856 -8.597405700000001E5
857 857 1.7159801400000001E6
857 858 -8.562395700000001E5
858 857 -8.597405700000001E5
858 858 1.7159801400000001E6
858 859 -8.562395700000001E5
859 858 -8.597405700000001E5
859 859 1.7159801400000001E6
859 860 -8.562395700000001E5
860 859 -8.597405700000001E5
860 860 1.7159801400000001E6
860 861 -8.562395700000001E5
861 860 -8.597405700000001E5
861 861 1.7159801400000001E6
861 862 -8.562395700000001E5
862 861 -8.597405700000001E5
862 862 1.7159801400000001E6
862 863 -8.562395700000001E5
863 862 -8.597405700000001E5
863 863 1.7159801400000001E6
863 864 -8.562395700000001E5
864 863 -8.597405700000001E5
864 864 1.7159801400000001E6
864 865 -8.562395700000001E5
865 864 -8.597405700000001E5
865 865 1.7159801400000001E6
865 866 -8.562395700000001E5
866 865 -8.597405700000001E5
866 866 1.7159801400000001E6
866 867 -8.562395700000001E5
867 866 -8.597405700000001E5
867 867 1.7159801400000001E6
867 868 -8.562395700000001E5
868 867 -8.597405700000001E5
868 868 1.7159801400000001E6
868 869 -8.562395700000001E5
869 868 -8.597405700000001E5
869 869 1.7159801400000001E6
869 870 -8.562395700000001E5
870 869 -8.597405700000001E5
870 870 1.7159801400000001E6
870 871 -8.562395700000001E5
871 870 -8.597405700000001E5
871 871 1.7159801400000001E6
871 872 -8.562395700000001E5
872 871 -8.597405700000001E5
872 872 1.7159801400000001E6
872 873 -8.562395700000001E5
873 872 -8.597405700000001E5
873 873 1.7159801400000001E6
873 874 -8.562395700000001E5
874 873 -8.597405700000001E5
874 874 1.7159801400000001E6
874 875 -8.562395700000001E5
875 874 -8.597405700000001E5
875 875 1.7159801400000001E6
875 876 -8.562395700000001E5
876 875 -8.597405700000001E5
876 876 1.7159801400000001E6
876 877 -8.562395700000001E5
877 876 -8.597405700000001E5
877 877 1.7159801400000001E6
877 878 -8.562395700000001E5
878 877 -8.597405700000001E5
878 878 1.7159801400000001E6
878 879 -8.562395700000001E5
879 878 -8.597405700000001E5
879 879 1.7159801400000001E6
879 880 -8.562395700000001E5
880 879 -8.597405700000001E5
880 880 1.7159801400000001E6
880 881 -8.562395700000001E5
881 880 -8.597405700000001E5
881 881 1.7159801400000001E6
881 882 -8.562395700000001E5
882 881 -8.597405700000001E5
882 882 1.7159801400000001E6
882 883 -8.562395700000001E5
883 882 -8.597405700000001E5
883 883 1.7159801400000001E6
883 884 -8.562395700000001E5
884 883 -8.597405700000001E5
884 884 1.7159801400000001E6
884 885 -8.562395700000001E5
885 884 -8.597405700000001E5
885 885 1.7159801400000001E6
885 886 -8.562395700000001E5
886 885 -8.597405700000001E5
886 886 1.7159801400000001E6
886 887 -8.562395700000001E5
887 886 -8.597405700000001E5
887 887 1.7159801400000001E6
887 888 -8.562395700000001E5
888 887 -8.597405700000001E5
888 888 1.7159801400000001E6
888 889 -8.562395700000001E5
889 888 -8.597405700000001E5
889 889 1.7159801400000001E6
889 890 -8.562395700000001E5
890 889 -8.597405700000001E5
890 890 1.7159801400000001E6
890 891 -8.562395700000001E5
891 890 -8.597405700000001E5
891 891 1.7159801400000001E6
891 892 -8.562395700000001E5
892 891 -8.597405700000001E5
892 892 1.7159801400000001E6
892 893 -8.562395700000001E5
893 892 -8.597405700000001E5
893 893 1.7159801400000001E6
893 894 -8.562395700000001E5
894 893 -8.597405700000001E5
894 894 1.7159801400000001E6
894 895 -8.562395700000001E5
895 894 -8.597405700000001E5
895 895 1.7159801400000001E6
895 896 -8.562395700000001E5
896 895 -8.597405700000001E5
896 896 1.7159801400000001E6
896 897 -8.562395700000001E5
897 896 -8.597405700000001E5
897 897 1.7159801400000001E6
897 898 -8.562395700000001E5
898 897 -8.597405700000001E5
898 898 1.7159801400000001E6
898 899 -8.562395700000001E5
899 898 -8.597405700000001E5
899 899 1.7159801400000001E6
899 900 -8.562395700000001E5
900 899 -8.597405700000001E5
900 900 1.7159801400000001E6
900 901 -8.562395700000001E5
901 900 -8.597405700000001E5
901 901 1.7159801400000001E6
901 902 -8.562395700000001E5
902 901 -8.597405700000001E5
902 902 1.7159801400000001E6
902 903 -8.562395700000001E5
903 902 -8.597405700000001E5
903 903 1.7159801400000001E6
903 904 -8.562395700000001E5
904 903 -8.597405700000001E5
904 904 1.7159801400000001E6
904 905 -8.562395700000001E5
905 904 -8.597405700000001E5
905 905 1.7159801400000001E6
905 906 -8.562395700000001E5
906 905 -8.597405700000001E5
906 906 1.7159801400000001E6
906 907 -8.562395700000001E5
907 906 -8.597405700000001E5
907 907 1.7159801400000001E6
907 908 -8.562395700000001E5
908 907 -8.597405700000001E5
908 908 1.7159801400000001E6
908 909 -8.562395700000001E5
909 908 -8.597405700000001E5
909 909 1.7159801400000001E6
909 910 -8.562395700000001E5
910 909 -8.597405700000001E5
910 910 1.7159801400000001E6
910 911 -8.562395700000001E5
911 910 -8.597405700000001E5
911 911 1.7159801400000001E6
911 912 -8.562395700000001E5
912 911 -8.597405700000001E5
912 912 1.7159801400000001E6
912 913 -8.562395700000001E5
913 912 -8.597405700000001E5
913 913 1.7159801400000001E6
913 914 -8.562395700000001E5
914 913 -8.597405700000001E5
914 914 1.7159801400000001E6
914 915 -8.562395700000001E5
915 914 -8.597405700000001E5
915 915 1.7159801400000001E6
915 916 -8.562395700000001E5
916 915 -8.597405700000001E5
916 916 1.7159801400000001E6
916 917 -8.562395700000001E5
917 916 -8.597405700000001E5
917 917 1.7159801400000001E6
917 918 -8.562395700000001E5
918 917 -8.597405700000001E5
918 918 1.7159801400000001E6
918 919 -8.562395700000001E5
919 918 -8.597405700000001E5
919 919 1.7159801400000001E6
919 920 -8.562395700000001E5
920 919 -8.597405700000001E5
920 920 1.7159801400000001E6
920 921 -8.562395700000001E5
921 920 -8.597405700000001E5
921 921 1.7159801400000001E6
921 922 -8.562395700000001E5
922 921 -8.597405700000001E5
922 922 1.7159801400000001E6
922 923 -8.562395700000001E5
923 922 -8.597405700000001E5
923 923 1.7159801400000001E6
923 924 -8.562395700000001E5
924 923 -8.597405700000001E5
924 924 1.7159801400000001E6
924 925 -8.562395700000001E5
925 924 -8.597405700000001E5
925 925 1.7159801400000001E6
925 926 -8.562395700000001E5
926 925 -8.597405700000001E5
926 926 1.7159801400000001E6
926 927 -8.562395700000001E5
927 926 -8.597405700000001E5
927 927 1.7159801400000001E6
927 928 -8.562395700000001E5
928 927 -8.597405700000001E5
928 928 1.7159801400000001E6
928 929 -8.562395700000001E5
929 928 -8.597405700000001E5
929 929 1.7159801400000001E6
929 930 -8.562395700000001E5
930 929 -8.597405700000001E5
930 930 1.7159801400000001E6
930 931 -8.562395700000001E5
931 930 -8.597405700000001E5
931 931 1.7159801400000001E6
931 932 -8.562395700000001E5
932 931 -8.597405700000001E5
932 932 1.7159801400000001E6
932 933 -8.562395700000001E5
933 932 -8.597405700000001E5
933 933 1.7159801400000001E6
933 934 -8.562395700000001E5
934 933 -8.597405700000001E5
934 934 1.7159801400000001E6
934 935 -8.562395700000001E5
935 934 -8.597405700000001E5
935 935 1.7159801400000001E6
935 936 -8.562395700000001E5
936 935 -8.597405700000001E5
936 936 1.7159801400000001E6
936 937 -8.562395700000001E5
937 936 -8.597405700000001E5
937 937 1.7159801400000001E6
937 938 -8.562395700000001E5
938 937 -8.597405700000001E5
938 938 1.7159801400000001E6
938 939 -8.562395700000001E5
939 938 -8.597405700000001E5
939 939 1.7159801400000001E6
939 940 -8.562395700000001E5
940 939 -8.597405700000001E5
940 940 1.7159801400000001E6
940 941 -8.562395700000001E5
941 940 -8.597405700000001E5
941 941 1.7159801400000001E6
941 942 -8.562395700000001E5
942 941 -8.597405700000001E5
942 942 1.7159801400000001E6
942 943 -8.562395700000001E5
943 942 -8.597405700000001E5
943 943 1.7159801400000001E6
943 944 -8.562395700000001E5
944 943 -8.597405700000001E5
944 944 1.7159801400000001E6
944 945 -8.562395700000001E5
945 944 -8.597405700000001E5
945 945 1.7159801400000001E6
945 946 -8.562395700000001E5
946 945 -8.597405700000001E5
946 946 1.7159801400000001E6
946 947 -8.562395700000001E5
947 946 -8.597405700000001E5
947 947 1.7159801400000001E6
947 948 -8.562395700000001E5
948 947 -8.597405700000001E5
948 948 1.7159801400000001E6
948 949 -8.562395700000001E5
949 948 -8.597405700000001E5
949 949 1.7159801400000001E6
949 950 -8.562395700000001E5
950 949 -8.597405700000001E5
950 950 1.7159801400000001E6
950 951 -8.562395700000001E5
951 950 -8.597405700000001E5
951 951 1.7159801400000001E6
951 952 -8.562395700000001E5
952 951 -8.597405700000001E5
952 952 1.7159801400000001E6
952 953 -8.562395700000001E5
953 952 -8.597405700000001E5
953 953 1.7159801400000001E6
953 954 -8.562395700000001E5
954 953 -8.597405700000001E5
954 954 1.7159801400000001E6
954 955 -8.562395700000001E5
955 954 -8.597405700000001E5
955 955 1.7159801400000001E6
955 956 -8.562395700000001E5
956 955 -8.597405700000001E5
956 956 1.7159801400000001E6
956 957 -8.562395700000001E5
957 956 -8.597405700000001E5
957 957 1.7159801400000001E6
957 958 -8.562395700000001E5
958 957 -8.597405700000001E5
958 958 1.7159801400000001E6
958 959 -8.562395700000001E5
959 958 -8.597405700000001E5
959 959 1.7159801400000001E6
959 960 -8.562395700000001E5
960 959 -8.597405700000001E5
960 960 1.7159801400000001E6
960 961 -8.562395700000001E5
961 960 -8.597405700000001E5
961 961 1.7159801400000001E6
961 962 -8.562395700000001E5
962 961 -8.597405700000001E5
962 962 1.7159801400000001E6
962 963 -8.562395700000001E5
963 962 -8.597405700000001E5
963 963 1.7159801400000001E6
963 964 -8.562395700000001E5
964 963 -8.597405700000001E5
964 964 1.7159801400000001E6
964 965 -8.562395700000001E5
965 964 -8.597405700000001E5
965 965 1.7159801400000001E6
965 966 -8.562395700000001E5
966 965 -8.597405700000001E5
966 966 1.7159801400000001E6
966 967 -8.562395700000001E5
967 966 -8.597405700000001E5
967 967 1.7159801400000001E6
967 968 -8.562395700000001E5
968 967 -8.597405700000001E5
968 968 1.7159801400000001E6
968 969 -8.562395700000001E5
969 968 -8.597405700000001E5
969 969 1.7159801400000001E6
969 970 -8.562395700000001E5
970 969 -8.597405700000001E5
970 970 1.7159801400000001E6
970 971 -8.562395700000001E5
971 970 -8.597405700000001E5
971 971 1.7159801400000001E6
971 972 -8.562395700000001E5
972 971 -8.597405700000001E5
972 972 1.7159801400000001E6
972 973 -8.562395700000001E5
973 972 -8.597405700000001E5
973 973 1.7159801400000001E6
973 974 -8.562395700000001E5
974 973 -8.597405700000001E5
974 974 1.7159801400000001E6
974 975 -8.562395700000001E5
975 974 -8.597405700000001E5
975 975 1.7159801400000001E6
975 976 -8.562395700000001E5
976 975 -8.597405700000001E5
976 976 1.7159801400000001E6
976 977 -8.562395700000001E5
977 976 -8.597405700000001E5
977 977 1.7159801400000001E6
977 978 -8.562395700000001E5
978 977 -8.597405700000001E5
978 978 1.7159801400000001E6
978 979 -8.562395700000001E5
979 978 -8.597405700000001E5
979 979 1.7159801400000001E6
979 980 -8.562395700000001E5
980 979 -8.597405700000001E5
980 980 1.7159801400000001E6
980 981 -8.562395700000001E5
981 980 -8.597405700000001E5
981 981 1.7159801400000001E6
981 982 -8.562395700000001E5
982 981 -8.597405700000001E5
982 982 1.7159801400000001E6
982 983 -8.562395700000001E5
983 982 -8.597405700000001E5
983 983 1.7159801400000001E6
983 984 -8.562395700000001E5
984 983 -8.597405700000001E5
984 984 1.7159801400000001E6
984 985 -8.562395700000001E5
985 984 -8.597405700000001E5
985 985 1.7159801400000001E6
985 986 -8.562395700000001E5
986 985 -8.597405700000001E5
986 986 1.7159801400000001E6
986 987 -8.562395700000001E5
987 986 -8.597405700000001E5
987 987 1.7159801400000001E6
987 988 -8.562395700000001E5
988 987 -8.597405700000001E5
988 988 1.7159801400000001E6
988 989 -8.562395700000001E5
989 988 -8.597405700000001E5
989 989 1.7159801400000001E6
989 990 -8.562395700000001E5
990 989 -8.597405700000001E5
990 990 1.7159801400000001E6
990 991 -8.562395700000001E5
991 990 -8.597405700000001E5
991 991 1.7159801400000001E6
991 992 -8.562395700000001E5
992 991 -8.597405700000001E5
992 992 1.7159801400000001E6
992 993 -8.562395700000001E5
993 992 -8.597405700000001E5
993 993 1.7159801400000001E6
993 994 -8.562395700000001E5
994 993 -8.597405700000001E5
994 994 1.7159801400000001E6
994 995 -8.562395700000001E5
995 994 -8.597405700000001E5
995 995 1.7159801400000001E6
995 996 -8.562395700000001E5
996 995 -8.597405700000001E5
996 996 1.7159801400000001E6
996 997 -8.562395700000001E5
997 996 -8.597405700000001E5
997 997 1.7159801400000001E6
997 998 -8.562395700000001E5
998 997 -8.597405700000001E5
998 998 1.7159801400000001E6
998 999 -8.562395700000001E5
999 998 -8.597405700000001E5
999 999 1.7159801400000001E6
999 1000 -8.562395700000001E5
1000 999 -8.597405700000001E5
1000 1000 1.7159801400000001E6
1000 1001 -8.562395700000001E5
1001 1000 -8.597405700000001E5
1001 1001 1.7159801400000001E6
1001 1002 -8.562395700000001E5
1002 1001 -8.597405700000001E5
1002 1002 1.7159801400000001E6
1002 1003 -8.562395700000001E5
1003 1002 -8.597405700000001E5
1003 1003 1.7159801400000001E6
1003 1004 -8.562395700000001E5
1004 1003 -8.597405700000001E5
1004 1004 1.7159801400000001E6
1004 1005 -8.562395700000001E5
1005 1004 -8.597405700000001E5
1005 1005 1.7159801400000001E6
1005 1006 -8.562395700000001E5
1006 1005 -8.597405700000001E5
1006 1006 1.7159801400000001E6
1006 1007 -8.562395700000001E5
1007 1006 -8.597405700000001E5
1007 1007 1.7159801400000001E6
1007 1008 -8.562395700000001E5
1008 1007 -8.597405700000001E5
1008 1008 1.7159801400000001E6
1008 1009 -8.562395700000001E5
1009 1008 -8.597405700000001E5
1009 1009 1.7159801400000001E6
1009 1010 -8.562395700000001E5
1010 1009 -8.597405700000001E5
1010 1010 1.7159801400000001E6
1010 1011 -8.562395700000001E5
1011 1010 -8.597405700000001E5
1011 1011 1.7159801400000001E6
1011 1012 -8.562395700000001E5
1012 1011 -8.597405700000001E5
1012 1012 1.7159801400000001E6
1012 1013 -8.562395700000001E5
1013 1012 -8.597405700000001E5
1013 1013 1.7159801400000001E6
1013 1014 -8.562395700000001E5
1014 1013 -8.597405700000001E5
1014 1014 1.7159801400000001E6
1014 1015 -8.562395700000001E5
1015 1014 -8.597405700000001E5
1015 1015 1.7159801400000001E6
1015 1016 -8.562395700000001E5
1016 1015 -8.597405700000001E5
1016 1016 1.7159801400000001E6
1016 1017 -8.562395700000001E5
1017 1016 -8.597405700000001E5
1017 1017 1.7159801400000001E6
1017 1018 -8.562395700000001E5
1018 1017 -8.597405700000001E5
1018 1018 1.7159801400000001E6
1018 1019 -8.562395700000001E5
1019 1018 -8.597405700000001E5
1019 1019 1.7159801400000001E6
1019 1020 -8.562395700000001E5
1020 1019 -8.597405700000001E5
1020 1020 1.7159801400000001E6
1020 1021 -8.562395700000001E5
1021 1020 -8.597405700000001E5
1021 1021 1.7159801400000001E6
1021 1022 -8.562395700000001E5
1022 1021 -8.597405700000001E5
1022 1022 1.7159801400000001E6
1022 1023 -8.562395700000001E5
1023 1022 -8.597405700000001E5
1023 1023 1.7159801400000001E6
1023 1024 -8.562395700000001E5
1024 1023 -8.597405700000001E5
1024 1024 1.7159801400000001E6
1024 1025 -8.562395700000001E5
1025 1024 -8.597405700000001E5
1025 1025 1.7159801400000001E6
1025 1026 -8.562395700000001E5
1026 1025 -8.597405700000001E5
1026 1026 1.7159801400000001E6
1026 1027 -8.562395700000001E5
1027 1026 -8.597405700000001E5
1027 1027 1.7159801400000001E6
1027 1028 -8.562395700000001E5
1028 1027 -8.597405700000001E5
1028 1028 1.7159801400000001E6
1028 1029 -8.562395700000001E5
1029 1028 -8.597405700000001E5
1029 1029 1.7159801400000001E6
1029 1030 -8.562395700000001E5
1030 1029 -8.597405700000001E5
1030 1030 1.7159801400000001E6
1030 1031 -8.562395700000001E5
1031 1030 -8.597405700000001E5
1031 1031 1.7159801400000001E6
1031 1032 -8.562395700000001E5
1032 1031 -8.597405700000001E5
1032 1032 1.7159801400000001E6
1032 1033 -8.562395700000001E5
1033 1032 -8.597405700000001E5
1033 1033 1.7159801400000001E6
1033 1034 -8.562395700000001E5
1034 1033 -8.597405700000001E5
1034 1034 1.7159801400000001E6
1034 1035 -8.562395700000001E5
1035 1034 -8.597405700000001E5
1035 1035 1.7159801400000001E6
1035 1036 -8.562395700000001E5
1036 1035 -8.597405700000001E5
1036 1036 1.7159801400000001E6
1036 1037 -8.562395700000001E5
1037 1036 -8.597405700000001E5
1037 1037 1.7159801400000001E6
1037 1038 -8.562395700000001E5
1038 1037 -8.597405700000001E5
1038 1038 1.7159801400000001E6
1038 1039 -8.562395700000001E5
1039 1038 -8.597405700000001E5
1039 1039 1.7159801400000001E6
1039 1040 -8.562395700000001E5
1040 1039 -8.597405700000001E5
1040 1040 1.7159801400000001E6
1040 1041 -8.562395700000001E5
1041 1040 -8.597405700000001E5
1041 1041 1.7159801400000001E6
1041 1042 -8.562395700000001E5
1042 1041 -8.597405700000001E5
1042 1042 1.7159801400000001E6
1042 1043 -8.562395700000001E5
1043 1042 -8.597405700000001E5
1043 1043 1.7159801400000001E6
1043 1044 -8.562395700000001E5
1044 1043 -8.597405700000001E5
1044 1044 1.7159801400000001E6
1044 1045 -8.562395700000001E5
1045 1044 -8.597405700000001E5
1045 1045 1.7159801400000001E6
1045 1046 -8.562395700000001E5
1046 1045 -8.597405700000001E5
1046 1046 1.7159801400000001E6
1046 1047 -8.562395700000001E5
1047 1046 -8.597405700000001E5
1047 1047 1.7159801400000001E6
1047 1048 -8.562395700000001E5
1048 1047 -8.597405700000001E5
1048 1048 1.7159801400000001E6
1048 1049 -8.562395700000001E5
1049 1048 -8.597405700000001E5
1049 1049 1.7159801400000001E6
1049 1050 -8.562395700000001E5
1050 1049 -8.597405700000001E5
1050 1050 1.7159801400000001E6
1050 1051 -8.562395700000001E5
1051 1050 -8.597405700000001E5
1051 1051 1.7159801400000001E6
1051 1052 -8.562395700000001E5
1052 1051 -8.597405700000001E5
1052 1052 1.7159801400000001E6
1052 1053 -8.562395700000001E5
1053 1052 -8.597405700000001E5
1053 1053 1.7159801400000001E6
1053 1054 -8.562395700000001E5
1054 1053 -8.597405700000001E5
1054 1054 1.7159801400000001E6
1054 1055 -8.562395700000001E5
1055 1054 -8.597405700000001E5
1055 1055 1.7159801400000001E6
1055 1056 -8.562395700000001E5
1056 1055 -8.597405700000001E5
1056 1056 1.7159801400000001E6
1056 1057 -8.562395700000001E5
1057 1056 -8.597405700000001E5
1057 1057 1.7159801400000001E6
1057 1058 -8.562395700000001E5
1058 1057 -8.597405700000001E5
1058 1058 1.7159801400000001E6
1058 1059 -8.562395700000001E5
1059 1058 -8.597405700000001E5
1059 1059 1.7159801400000001E6
1059 1060 -8.562395700000001E5
1060 1059 -8.597405700000001E5
1060 1060 1.7159801400000001E6
1060 1061 -8.562395700000001E5
1061 1060 -8.597405700000001E5
1061 1061 1.7159801400000001E6
1061 1062 -8.562395700000001E5
1062 1061 -8.597405700000001E5
1062 1062 1.7159801400000001E6
1062 1063 -8.562395700000001E5
1063 1062 -8.597405700000001E5
1063 1063 1.7159801400000001E6
1063 1064 -8.562395700000001E5
1064 1063 -8.597405700000001E5
1064 1064 1.7159801400000001E6
1064 1065 -8.562395700000001E5
1065 1064 -8.597405700000001E5
1065 1065 1.7159801400000001E6
1065 1066 -8.562395700000001E5
1066 1065 -8.597405700000001E5
1066 1066 1.7159801400000001E6
1066 1067 -8.562395700000001E5
1067 1066 -8.597405700000001E5
1067 1067 1.7159801400000001E6
1067 1068 -8.562395700000001E5
1068 1067 -8.597405700000001E5
1068 1068 1.7159801400000001E6
1068 1069 -8.562395700000001E5
1069 1068 -8.597405700000001E5
1069 1069 1.7159801400000001E6
1069 1070 -8.562395700000001E5
1070 1069 -8.597405700000001E5
1070 1070 1.7159801400000001E6
1070 1071 -8.562395700000001E5
1071 1070 -8.597405700000001E5
1071 1071 1.7159801400000001E6
1071 1072 -8.562395700000001E5
1072 1071 -8.597405700000001E5
1072 1072 1.7159801400000001E6
1072 1073 -8.562395700000001E5
1073 1072 -8.597405700000001E5
1073 1073 1.7159801400000001E6
1073 1074 -8.562395700000001E5
1074 1073 -8.597405700000001E5
1074 1074 1.7159801400000001E6
1074 1075 -8.562395700000001E5
1075 1074 -8.597405700000001E5
1075 1075 1.7159801400000001E6
1075 1076 -8.562395700000001E5
1076 1075 -8.597405700000001E5
1076 1076 1.7159801400000001E6
1076 1077 -8.562395700000001E5
1077 1076 -8.597405700000001E5
1077 1077 1.7159801400000001E6
1077 1078 -8.562395700000001E5
1078 1077 -8.597405700000001E5
1078 1078 1.7159801400000001E6
1078 1079 -8.562395700000001E5
1079 1078 -8.597405700000001E5
1079 1079 1.7159801400000001E6
1079 1080 -8.562395700000001E5
1080 1079 -8.597405700000001E5
1080 1080 1.7159801400000001E6
1080 1081 -8.562395700000001E5
1081 1080 -8.597405700000001E5
1081 1081 1.7159801400000001E6
1081 1082 -8.562395700000001E5
1082 1081 -8.597405700000001E5
1082 1082 1.7159801400000001E6
1082 1083 -8.562395700000001E5
1083 1082 -8.597405700000001E5
1083 1083 1.7159801400000001E6
1083 1084 -8.562395700000001E5
1084 1083 -8.597405700000001E5
1084 1084 1.7159801400000001E6
1084 1085 -8.562395700000001E5
1085 1084 -8.597405700000001E5
1085 1085 1.7159801400000001E6
1085 1086 -8.562395700000001E5
1086 1085 -8.597405700000001E5
1086 1086 1.7159801400000001E6
1086 1087 -8.562395700000001E5
1087 1086 -8.597405700000001E5
1087 1087 1.7159801400000001E6
1087 1088 -8.562395700000001E5
1088 1087 -8.597405700000001E5
1088 1088 1.7159801400000001E6
1088 1089 -8.562395700000001E5
1089 1088 -8.597405700000001E5
1089 1089 1.7159801400000001E6
1089 1090 -8.562395700000001E5
1090 1089 -8.597405700000001E5
1090 1090 1.7159801400000001E6
1090 1091 -8.562395700000001E5
1091 1090 -8.597405700000001E5
1091 1091 1.7159801400000001E6
1091 1092 -8.562395700000001E5
1092 1091 -8.597405700000001E5
1092 1092 1.7159801400000001E6
1092 1093 -8.562395700000001E5
1093 1092 -8.597405700000001E5
1093 1093 1.7159801400000001E6
1093 1094 -8.562395700000001E5
1094 1093 -8.597405700000001E5
1094 1094 1.7159801400000001E6
1094 1095 -8.562395700000001E5
1095 1094 -8.597405700000001E5
1095 1095 1.7159801400000001E6
1095 1096 -8.562395700000001E5
1096 1095 -8.597405700000001E5
1096 1096 1.7159801400000001E6
1096 1097 -8.562395700000001E5
1097 1096 -8.597405700000001E5
1097 1097 1.7159801400000001E6
1097 1098 -8.562395700000001E5
1098 1097 -8.597405700000001E5
1098 1098 1.7159801400000001E6
1098 1099 -8.562395700000001E5
1099 1098 -8.597405700000001E5
1099 1099 1.7159801400000001E6
1099 1100 -8.562395700000001E5
1100 1099 -8.597405700000001E5
1100 1100 1.7159801400000001E6
1100 1101 -8.562395700000001E5
1101 1100 -8.597405700000001E5
1101 1101 1.7159801400000001E6
1101 1102 -8.562395700000001E5
1102 1101 -8.597405700000001E5
1102 1102 1.7159801400000001E6
1102 1103 -8.562395700000001E5
1103 1102 -8.597405700000001E5
1103 1103 1.7159801400000001E6
1103 1104 -8.562395700000001E5
1104 1103 -8.597405700000001E5
1104 1104 1.7159801400000001E6
1104 1105 -8.562395700000001E5
1105 1104 -8.597405700000001E5
1105 1105 1.7159801400000001E6
1105 1106 -8.562395700000001E5
1106 1105 -8.597405700000001E5
1106 1106 1.7159801400000001E6
1106 1107 -8.562395700000001E5
1107 1106 -8.597405700000001E5
1107 1107 1.7159801400000001E6
1107 1108 -8.562395700000001E5
1108 1107 -8.597405700000001E5
1108 1108 1.7159801400000001E6
1108 1109 -8.562395700000001E5
1109 1108 -8.597405700000001E5
1109 1109 1.7159801400000001E6
1109 1110 -8.562395700000001E5
1110 1109 -8.597405700000001E5
1110 1110 1.7159801400000001E6
1110 1111 -8.562395700000001E5
1111 1110 -8.597405700000001E5
1111 1111 1.7159801400000001E6
1111 1112 -8.562395700000001E5
1112 1111 -8.597405700000001E5
1112 1112 1.7159801400000001E6
1112 1113 -8.562395700000001E5
1113 1112 -8.597405700000001E5
1113 1113 1.7159801400000001E6
1113 1114 -8.562395700000001E5
1114 1113 -8.597405700000001E5
1114 1114 1.7159801400000001E6
1114 1115 -8.562395700000001E5
1115 1114 -8.597405700000001E5
1115 1115 1.7159801400000001E6
1115 1116 -8.562395700000001E5
1116 1115 -8.597405700000001E5
1116 1116 1.7159801400000001E6
1116 1117 -8.562395700000001E5
1117 1116 -8.597405700000001E5
1117 1117 1.7159801400000001E6
1117 1118 -8.562395700000001E5
1118 1117 -8.597405700000001E5
1118 1118 1.7159801400000001E6
1118 1119 -8.562395700000001E5
1119 1118 -8.597405700000001E5
1119 1119 1.7159801400000001E6
1119 1120 -8.562395700000001E5
1120 1119 -8.597405700000001E5
1120 1120 1.7159801400000001E6
1120 1121 -8.562395700000001E5
1121 1120 -8.597405700000001E5
1121 1121 1.7159801400000001E6
1121 1122 -8.562395700000001E5
1122 1121 -8.597405700000001E5
1122 1122 1.7159801400000001E6
1122 1123 -8.562395700000001E5
1123 1122 -8.597405700000001E5
1123 1123 1.7159801400000001E6
1123 1124 -8.562395700000001E5
1124 1123 -8.597405700000001E5
1124 1124 1.7159801400000001E6
1124 1125 -8.562395700000001E5
1125 1124 -8.597405700000001E5
1125 1125 1.7159801400000001E6
1125 1126 -8.562395700000001E5
1126 1125 -8.597405700000001E5
1126 1126 1.7159801400000001E6
1126 1127 -8.562395700000001E5
1127 1126 -8.597405700000001E5
1127 1127 1.7159801400000001E6
1127 1128 -8.562395700000001E5
1128 1127 -8.597405700000001E5
1128 1128 1.7159801400000001E6
1128 1129 -8.562395700000001E5
1129 1128 -8.597405700000001E5
1129 1129 1.7159801400000001E6
1129 1130 -8.562395700000001E5
1130 1129 -8.597405700000001E5
1130 1130 1.7159801400000001E6
1130 1131 -8.562395700000001E5
1131 1130 -8.597405700000001E5
1131 1131 1.7159801400000001E6
1131 1132 -8.562395700000001E5
1132 1131 -8.597405700000001E5
1132 1132 1.7159801400000001E6
1132 1133 -8.562395700000001E5
1133 1132 -8.597405700000001E5
1133 1133 1.7159801400000001E6
1133 1134 -8.562395700000001E5
1134 1133 -8.597405700000001E5
1134 1134 1.7159801400000001E6
1134 1135 -8.562395700000001E5
1135 1134 -8.597405700000001E5
1135 1135 1.7159801400000001E6
1135 1136 -8.562395700000001E5
1136 1135 -8.597405700000001E5
1136 1136 1.7159801400000001E6
1136 1137 -8.562395700000001E5
1137 1136 -8.597405700000001E5
1137 1137 1.7159801400000001E6
1137 1138 -8.562395700000001E5
1138 1137 -8.597405700000001E5
1138 1138 1.7159801400000001E6
1138 1139 -8.562395700000001E5
1139 1138 -8.597405700000001E5
1139 1139 1.7159801400000001E6
1139 1140 -8.562395700000001E5
1140 1139 -8.597405700000001E5
1140 1140 1.7159801400000001E6
1140 1141 -8.562395700000001E5
1141 1140 -8.597405700000001E5
1141 1141 1.7159801400000001E6
1141 1142 -8.562395700000001E5
1142 1141 -8.597405700000001E5
1142 1142 1.7159801400000001E6
1142 1143 -8.562395700000001E5
1143 1142 -8.597405700000001E5
1143 1143 1.7159801400000001E6
1143 1144 -8.562395700000001E5
1144 1143 -8.597405700000001E5
1144 1144 1.7159801400000001E6
1144 1145 -8.562395700000001E5
1145 1144 -8.597405700000001E5
1145 1145 1.7159801400000001E6
1145 1146 -8.562395700000001E5
1146 1145 -8.597405700000001E5
1146 1146 1.7159801400000001E6
1146 1147 -8.562395700000001E5
1147 1146 -8.597405700000001E5
1147 1147 1.7159801400000001E6
1147 1148 -8.562395700000001E5
1148 1147 -8.597405700000001E5
1148 1148 1.7159801400000001E6
1148 1149 -8.562395700000001E5
1149 1148 -8.597405700000001E5
1149 1149 1.7159801400000001E6
1149 1150 -8.562395700000001E5
1150 1149 -8.597405700000001E5
1150 1150 1.7159801400000001E6
1150 1151 -8.562395700000001E5
1151 1150 -8.597405700000001E5
1151 1151 1.7159801400000001E6
1151 1152 -8.562395700000001E5
1152 1151 -8.597405700000001E5
1152 1152 1.7159801400000001E6
1152 1153 -8.562395700000001E5
1153 1152 -8.597405700000001E5
1153 1153 1.7159801400000001E6
1153 1154 -8.562395700000001E5
1154 1153 -8.597405700000001E5
1154 1154 1.7159801400000001E6
1154 1155 -8.562395700000001E5
1155 1154 -8.597405700000001E5
1155 1155 1.7159801400000001E6
1155 1156 -8.562395700000001E5
1156 1155 -8.597405700000001E5
1156 1156 1.7159801400000001E6
1156 1157 -8.562395700000001E5
1157 1156 -8.597405700000001E5
1157 1157 1.7159801400000001E6
1157 1158 -8.562395700000001E5
1158 1157 -8.597405700000001E5
1158 1158 1.7159801400000001E6
1158 1159 -8.562395700000001E5
1159 1158 -8.597405700000001E5
1159 1159 1.7159801400000001E6
1159 1160 -8.562395700000001E5
1160 1159 -8.597405700000001E5
1160 1160 1.7159801400000001E6
1160 1161 -8.562395700000001E5
1161 1160 -8.597405700000001E5
1161 1161 1.7159801400000001E6
1161 1162 -8.562395700000001E5
1162 1161 -8.597405700000001E5
1162 1162 1.7159801400000001E6
1162 1163 -8.562395700000001E5
1163 1162 -8.597405700000001E5
1163 1163 1.7159801400000001E6
1163 1164 -8.562395700000001E5
1164 1163 -8.597405700000001E5
1164 1164 1.7159801400000001E6
1164 1165 -8.562395700000001E5
1165 1164 -8.597405700000001E5
1165 1165 1.7159801400000001E6
1165 1166 -8.562395700000001E5
1166 1165 -8.597405700000001E5
1166 1166 1.7159801400000001E6
1166 1167 -8.562395700000001E5
1167 1166 -8.597405700000001E5
1167 1167 1.7159801400000001E6
1167 1168 -8.562395700000001E5
1168 1167 -8.597405700000001E5
1168 1168 1.7159801400000001E6
1168 1169 -8.562395700000001E5
1169 1168 -8.597405700000001E5
1169 1169 1.7159801400000001E6
1169 1170 -8.562395700000001E5
1170 1169 -8.597405700000001E5
1170 1170 1.7159801400000001E6
1170 1171 -8.562395700000001E5
1171 1170 -8.597405700000001E5
1171 1171 1.7159801400000001E6
1171 1172 -8.562395700000001E5
1172 1171 -8.597405700000001E5
1172 1172 1.7159801400000001E6
1172 1173 -8.562395700000001E5
1173 1172 -8.597405700000001E5
1173 1173 1.7159801400000001E6
1173 1174 -8.562395700000001E5
1174 1173 -8.597405700000001E5
1174 1174 1.7159801400000001E6
1174 1175 -8.562395700000001E5
1175 1174 -8.597405700000001E5
1175 1175 1.7159801400000001E6
1175 1176 -8.562395700000001E5
1176 1175 -8.597405700000001E5
1176 1176 1.7159801400000001E6
1176 1177 -8.562395700000001E5
1177 1176 -8.597405700000001E5
1177 1177 1.7159801400000001E6
1177 1178 -8.562395700000001E5
1178 1177 -8.597405700000001E5
1178 1178 1.7159801400000001E6
1178 1179 -8.562395700000001E5
1179 1178 -8.597405700000001E5
1179 1179 1.7159801400000001E6
1179 1180 -8.562395700000001E5
1180 1179 -8.597405700000001E5
1180 1180 1.7159801400000001E6
1180 1181 -8.562395700000001E5
1181 1180 -8.597405700000001E5
1181 1181 1.7159801400000001E6
1181 1182 -8.562395700000001E5
1182 1181 -8.597405700000001E5
1182 1182 1.7159801400000001E6
1182 1183 -8.562395700000001E5
1183 1182 -8.597405700000001E5
1183 1183 1.7159801400000001E6
1183 1184 -8.562395700000001E5
1184 1183 -8.597405700000001E5
1184 1184 1.7159801400000001E6
1184 1185 -8.562395700000001E5
1185 1184 -8.597405700000001E5
1185 1185 1.7159801400000001E6
1185 1186 -8.562395700000001E5
1186 1185 -8.597405700000001E5
1186 1186 1.7159801400000001E6
1186 1187 -8.562395700000001E5
1187 1186 -8.597405700000001E5
1187 1187 1.7159801400000001E6
1187 1188 -8.562395700000001E5
1188 1187 -8.597405700000001E5
1188 1188 1.7159801400000001E6
1188 1189 -8.562395700000001E5
1189 1188 -8.597405700000001E5
1189 1189 1.7159801400000001E6
1189 1190 -8.562395700000001E5
1190 1189 -8.597405700000001E5
1190 1190 1.7159801400000001E6
1190 1191 -8.562395700000001E5
1191 1190 -8.597405700000001E5
1191 1191 1.7159801400000001E6
1191 1192 -8.562395700000001E5
1192 1191 -8.597405700000001E5
1192 1192 1.7159801400000001E6
1192 1193 -8.562395700000001E5
1193 1192 -8.597405700000001E5
1193 1193 1.7159801400000001E6
1193 1194 -8.562395700000001E5
1194 1193 -8.597405700000001E5
1194 1194 1.7159801400000001E6
1194 1195 -8.562395700000001E5
1195 1194 -8.597405700000001E5
1195 1195 1.7159801400000001E6
1195 1196 -8.562395700000001E5
1196 1195 -8.597405700000001E5
1196 1196 1.7159801400000001E6
1196 1197 -8.562395700000001E5
1197 1196 -8.597405700000001E5
1197 1197 1.7159801400000001E6
1197 1198 -8.562395700000001E5
1198 1197 -8.597405700000001E5
1198 1198 1.7159801400000001E6
1198 1199 -8.562395700000001E5
1199 1198 -8.597405700000001E5
1199 1199 1.7159801400000001E6
1199 1200 -8.562395700000001E5
1200 1199 -8.597405700000001E5
1200 1200 1.7159801400000001E6
1200 1201 -8.562395700000001E5
1201 1200 -8.597405700000001E5
1201 1201 1.7159801400000001E6
1201 1202 -8.562395700000001E5
1202 1201 -8.597405700000001E5
1202 1202 1.7159801400000001E6
1202 1203 -8.562395700000001E5
1203 1202 -8.597405700000001E5
1203 1203 1.7159801400000001E6
1203 1204 -8.562395700000001E5
1204 1203 -8.597405700000001E5
1204 1204 1.7159801400000001E6
1204 1205 -8.562395700000001E5
1205 1204 -8.597405700000001E5
1205 1205 1.7159801400000001E6
1205 1206 -8.562395700000001E5
1206 1205 -8.597405700000001E5
1206 1206 1.7159801400000001E6
1206 1207 -8.562395700000001E5
1207 1206 -8.597405700000001E5
1207 1207 1.7159801400000001E6
1207 1208 -8.562395700000001E5
1208 1207 -8.597405700000001E5
1208 1208 1.7159801400000001E6
1208 1209 -8.562395700000001E5
1209 1208 -8.597405700000001E5
1209 1209 1.7159801400000001E6
1209 1210 -8.562395700000001E5
1210 1209 -8.597405700000001E5
1210 1210 1.7159801400000001E6
1210 1211 -8.562395700000001E5
1211 1210 -8.597405700000001E5
1211 1211 1.7159801400000001E6
1211 1212 -8.562395700000001E5
1212 1211 -8.597405700000001E5
1212 1212 1.7159801400000001E6
1212 1213 -8.562395700000001E5
1213 1212 -8.597405700000001E5
1213 1213 1.7159801400000001E6
1213 1214 -8.562395700000001E5
1214 1213 -8.597405700000001E5
1214 1214 1.7159801400000001E6
1214 1215 -8.562395700000001E5
1215 1214 -8.597405700000001E5
1215 1215 1.7159801400000001E6
1215 1216 -8.562395700000001E5
1216 1215 -8.597405700000001E5
1216 1216 1.7159801400000001E6
1216 1217 -8.562395700000001E5
1217 1216 -8.597405700000001E5
1217 1217 1.7159801400000001E6
1217 1218 -8.562395700000001E5
1218 1217 -8.597405700000001E5
1218 1218 1.7159801400000001E6
1218 1219 -8.562395700000001E5
1219 1218 -8.597405700000001E5
1219 1219 1.7159801400000001E6
1219 1220 -8.562395700000001E5
1220 1219 -8.597405700000001E5
1220 1220 1.7159801400000001E6
1220 1221 -8.562395700000001E5
1221 1220 -8.597405700000001E5
1221 1221 1.7159801400000001E6
1221 1222 -8.562395700000001E5
1222 1221 -8.597405700000001E5
1222 1222 1.7159801400000001E6
1222 1223 -8.562395700000001E5
1223 1222 -8.597405700000001E5
1223 1223 1.7159801400000001E6
1223 1224 -8.562395700000001E5
1224 1223 -8.597405700000001E5
1224 1224 1.7159801400000001E6
1224 1225 -8.562395700000001E5
1225 1224 -8.597405700000001E5
1225 1225 1.7159801400000001E6
1225 1226 -8.562395700000001E5
1226 1225 -8.597405700000001E5
1226 1226 1.7159801400000001E6
1226 1227 -8.562395700000001E5
1227 1226 -8.597405700000001E5
1227 1227 1.7159801400000001E6
1227 1228 -8.562395700000001E5
1228 1227 -8.597405700000001E5
1228 1228 1.7159801400000001E6
1228 1229 -8.562395700000001E5
1229 1228 -8.597405700000001E5
1229 1229 1.7159801400000001E6
1229 1230 -8.562395700000001E5
1230 1229 -8.597405700000001E5
1230 1230 1.7159801400000001E6
1230 1231 -8.562395700000001E5
1231 1230 -8.597405700000001E5
1231 1231 1.7159801400000001E6
1231 1232 -8.562395700000001E5
1232 1231 -8.597405700000001E5
1232 1232 1.7159801400000001E6
1232 1233 -8.562395700000001E5
1233 1232 -8.597405700000001E5
1233 1233 1.7159801400000001E6
1233 1234 -8.562395700000001E5
1234 1233 -8.597405700000001E5
1234 1234 1.7159801400000001E6
1234 1235 -8.562395700000001E5
1235 1234 -8.597405700000001E5
1235 1235 1.7159801400000001E6
1235 1236 -8.562395700000001E5
1236 1235 -8.597405700000001E5
1236 1236 1.7159801400000001E6
1236 1237 -8.562395700000001E5
1237 1236 -8.597405700000001E5
1237 1237 1.7159801400000001E6
1237 1238 -8.562395700000001E5
1238 1237 -8.597405700000001E5
1238 1238 1.7159801400000001E6
1238 1239 -8.562395700000001E5
1239 1238 -8.597405700000001E5
1239 1239 1.7159801400000001E6
1239 1240 -8.562395700000001E5
1240 1239 -8.597405700000001E5
1240 1240 1.7159801400000001E6
1240 1241 -8.562395700000001E5
1241 1240 -8.597405700000001E5
1241 1241 1.7159801400000001E6
1241 1242 -8.562395700000001E5
1242 1241 -8.597405700000001E5
1242 1242 1.7159801400000001E6
1242 1243 -8.562395700000001E5
1243 1242 -8.597405700000001E5
1243 1243 1.7159801400000001E6
1243 1244 -8.562395700000001E5
1244 1243 -8.597405700000001E5
1244 1244 1.7159801400000001E6
1244 1245 -8.562395700000001E5
1245 1244 -8.597405700000001E5
1245 1245 1.7159801400000001E6
1245 1246 -8.562395700000001E5
1246 1245 -8.597405700000001E5
1246 1246 1.7159801400000001E6
1246 1247 -8.562395700000001E5
1247 1246 -8.597405700000001E5
1247 1247 1.7159801400000001E6
1247 1248 -8.562395700000001E5
1248 1247 -8.597405700000001E5
1248 1248 1.7159801400000001E6
1248 1249 -8.562395700000001E5
1249 1248 -8.597405700000001E5
1249 1249 1.7159801400000001E6
1249 1250 -8.562395700000001E5
1250 1249 -8.597405700000001E5
1250 1250 1.7159801400000001E6
1250 1251 -8.562395700000001E5
1251 1250 -8.597405700000001E5
1251 1251 1.7159801400000001E6
1251 1252 -8.562395700000001E5
1252 1251 -8.597405700000001E5
1252 1252 1.7159801400000001E6
1252 1253 -8.562395700000001E5
1253 1252 -8.597405700000001E5
1253 1253 1.7159801400000001E6
1253 1254 -8.562395700000001E5
1254 1253 -8.597405700000001E5
1254 1254 1.7159801400000001E6
1254 1255 -8.562395700000001E5
1255 1254 -8.597405700000001E5
1255 1255 1.7159801400000001E6
1255 1256 -8.562395700000001E5
1256 1255 -8.597405700000001E5
1256 1256 1.7159801400000001E6
1256 1257 -8.562395700000001E5
1257 1256 -8.597405700000001E5
1257 1257 1.7159801400000001E6
1257 1258 -8.562395700000001E5
1258 1257 -8.597405700000001E5
1258 1258 1.7159801400000001E6
1258 1259 -8.562395700000001E5
1259 1258 -8.597405700000001E5
1259 1259 1.7159801400000001E6
1259 1260 -8.562395700000001E5
1260 1259 -8.597405700000001E5
1260 1260 1.7159801400000001E6
1260 1261 -8.562395700000001E5
1261 1260 -8.597405700000001E5
1261 1261 1.7159801400000001E6
1261 1262 -8.562395700000001E5
1262 1261 -8.597405700000001E5
1262 1262 1.7159801400000001E6
1262 1263 -8.562395700000001E5
1263 1262 -8.597405700000001E5
1263 1263 1.7159801400000001E6
1263 1264 -8.562395700000001E5
1264 1263 -8.597405700000001E5
1264 1264 1.7159801400000001E6
1264 1265 -8.562395700000001E5
1265 1264 -8.597405700000001E5
1265 1265 1.7159801400000001E6
1265 1266 -8.562395700000001E5
1266 1265 -8.597405700000001E5
1266 1266 1.7159801400000001E6
1266 1267 -8.562395700000001E5
1267 1266 -8.597405700000001E5
1267 1267 1.7159801400000001E6
1267 1268 -8.562395700000001E5
1268 1267 -8.597405700000001E5
1268 1268 1.7159801400000001E6
1268 1269 -8.562395700000001E5
1269 1268 -8.597405700000001E5
1269 1269 1.7159801400000001E6
1269 1270 -8.562395700000001E5
1270 1269 -8.597405700000001E5
1270 1270 1.7159801400000001E6
1270 1271 -8.562395700000001E5
1271 1270 -8.597405700000001E5
1271 1271 1.7159801400000001E6
1271 1272 -8.562395700000001E5
1272 1271 -8.597405700000001E5
1272 1272 1.7159801400000001E6
1272 1273 -8.562395700000001E5
1273 1272 -8.597405700000001E5
1273 1273 1.7159801400000001E6
1273 1274 -8.562395700000001E5
1274 1273 -8.597405700000001E5
1274 1274 1.7159801400000001E6
1274 1275 -8.562395700000001E5
1275 1274 -8.597405700000001E5
1275 1275 1.7159801400000001E6
1275 1276 -8.562395700000001E5
1276 1275 -8.597405700000001E5
1276 1276 1.7159801400000001E6
1276 1277 -8.562395700000001E5
1277 1276 -8.597405700000001E5
1277 1277 1.7159801400000001E6
1277 1278 -8.562395700000001E5
1278 1277 -8.597405700000001E5
1278 1278 1.7159801400000001E6
1278 1279 -8.562395700000001E5
1279 1278 -8.597405700000001E5
1279 1279 1.7159801400000001E6
1279 1280 -8.562395700000001E5
1280 1279 -8.597405700000001E5
1280 1280 1.7159801400000001E6
1280 1281 -8.562395700000001E5
1281 1280 -8.597405700000001E5
1281 1281 1.7159801400000001E6
1281 1282 -8.562395700000001E5
1282 1281 -8.597405700000001E5
1282 1282 1.7159801400000001E6
1282 1283 -8.562395700000001E5
1283 1282 -8.597405700000001E5
1283 1283 1.7159801400000001E6
1283 1284 -8.562395700000001E5
1284 1283 -8.597405700000001E5
1284 1284 1.7159801400000001E6
1284 1285 -8.562395700000001E5
1285 1284 -8.597405700000001E5
1285 1285 1.7159801400000001E6
1285 1286 -8.562395700000001E5
1286 1285 -8.597405700000001E5
1286 1286 1.7159801400000001E6
1286 1287 -8.562395700000001E5
1287 1286 -8.597405700000001E5
1287 1287 1.7159801400000001E6
1287 1288 -8.562395700000001E5
1288 1287 -8.597405700000001E5
1288 1288 1.7159801400000001E6
1288 1289 -8.562395700000001E5
1289 1288 -8.597405700000001E5
1289 1289 1.7159801400000001E6
1289 1290 -8.562395700000001E5
1290 1289 -8.597405700000001E5
1290 1290 1.7159801400000001E6
1290 1291 -8.562395700000001E5
1291 1290 -8.597405700000001E5
1291 1291 1.7159801400000001E6
1291 1292 -8.562395700000001E5
1292 1291 -8.597405700000001E5
1292 1292 1.7159801400000001E6
1292 1293 -8.562395700000001E5
1293 1292 -8.597405700000001E5
1293 1293 1.7159801400000001E6
1293 1294 -8.562395700000001E5
1294 1293 -8.597405700000001E5
1294 1294 1.7159801400000001E6
1294 1295 -8.562395700000001E5
1295 1294 -8.597405700000001E5
1295 1295 1.7159801400000001E6
1295 1296 -8.562395700000001E5
1296 1295 -8.597405700000001E5
1296 1296 1.7159801400000001E6
1296 1297 -8.562395700000001E5
1297 1296 -8.597405700000001E5
1297 1297 1.7159801400000001E6
1297 1298 -8.562395700000001E5
1298 1297 -8.597405700000001E5
1298 1298 1.7159801400000001E6
1298 1299 -8.562395700000001E5
1299 1298 -8.597405700000001E5
1299 1299 1.7159801400000001E6
1299 1300 -8.562395700000001E5
1300 1299 -8.597405700000001E5
1300 1300 1.7159801400000001E6
1300 1301 -8.562395700000001E5
1301 1300 -8.597405700000001E5
1301 1301 1.7159801400000001E6
1301 1302 -8.562395700000001E5
1302 1301 -8.597405700000001E5
1302 1302 1.7159801400000001E6
1302 1303 -8.562395700000001E5
1303 1302 -8.597405700000001E5
1303 1303 1.7159801400000001E6
1303 1304 -8.562395700000001E5
1304 1303 -8.597405700000001E5
1304 1304 1.7159801400000001E6
1304 1305 -8.562395700000001E5
1305 1304 -8.597405700000001E5
1305 1305 1.7159801400000001E6
1305 1306 -8.562395700000001E5
1306 1305 -8.597405700000001E5
1306 1306 1.7159801400000001E6
1306 1307 -8.562395700000001E5
1307 1306 -8.597405700000001E5
1307 1307 1.7159801400000001E6
1307 1308 -8.562395700000001E5
1308 1307 -8.597405700000001E5
1308 1308 1.7159801400000001E6
1308 1309 -8.562395700000001E5
1309 1308 -8.597405700000001E5
1309 1309 1.7159801400000001E6
1309 1310 -8.562395700000001E5
1310 1309 -8.597405700000001E5
1310 1310 1.7159801400000001E6
1310 1311 -8.562395700000001E5
1311 1310 -8.597405700000001E5
1311 1311 1.7159801400000001E6
1311 1312 -8.562395700000001E5
1312 1311 -8.597405700000001E5
1312 1312 1.7159801400000001E6
1312 1313 -8.562395700000001E5
1313 1312 -8.597405700000001E5
1313 1313 1.7159801400000001E6
1313 1314 -8.562395700000001E5
1314 1313 -8.597405700000001E5
1314 1314 1.7159801400000001E6
1314 1315 -8.562395700000001E5
1315 1314 -8.597405700000001E5
1315 1315 1.7159801400000001E6
1315 1316 -8.562395700000001E5
1316 1315 -8.597405700000001E5
1316 1316 1.7159801400000001E6
1316 1317 -8.562395700000001E5
1317 1316 -8.597405700000001E5
1317 1317 1.7159801400000001E6
1317 1318 -8.562395700000001E5
1318 1317 -8.597405700000001E5
1318 1318 1.7159801400000001E6
1318 1319 -8.562395700000001E5
1319 1318 -8.597405700000001E5
1319 1319 1.7159801400000001E6
1319 1320 -8.562395700000001E5
1320 1319 -8.597405700000001E5
1320 1320 1.7159801400000001E6
1320 1321 -8.562395700000001E5
1321 1320 -8.597405700000001E5
1321 1321 1.7159801400000001E6
1321 1322 -8.562395700000001E5
1322 1321 -8.597405700000001E5
1322 1322 1.7159801400000001E6
1322 1323 -8.562395700000001E5
1323 1322 -8.597405700000001E5
1323 1323 1.7159801400000001E6
1323 1324 -8.562395700000001E5
1324 1323 -8.597405700000001E5
1324 1324 1.7159801400000001E6
1324 1325 -8.562395700000001E5
1325 1324 -8.597405700000001E5
1325 1325 1.7159801400000001E6
1325 1326 -8.562395700000001E5
1326 1325 -8.597405700000001E5
1326 1326 1.7159801400000001E6
1326 1327 -8.562395700000001E5
1327 1326 -8.597405700000001E5
1327 1327 1.7159801400000001E6
1327 1328 -8.562395700000001E5
1328 1327 -8.597405700000001E5
1328 1328 1.7159801400000001E6
1328 1329 -8.562395700000001E5
1329 1328 -8.597405700000001E5
1329 1329 1.7159801400000001E6
1329 1330 -8.562395700000001E5
1330 1329 -8.597405700000001E5
1330 1330 1.7159801400000001E6
1330 1331 -8.562395700000001E5
1331 1330 -8.597405700000001E5
1331 1331 1.7159801400000001E6
1331 1332 -8.562395700000001E5
1332 1331 -8.597405700000001E5
1332 1332 1.7159801400000001E6
1332 1333 -8.562395700000001E5
1333 1332 -8.597405700000001E5
1333 1333 1.7159801400000001E6
1333 1334 -8.562395700000001E5
1334 1333 -8.597405700000001E5
1334 1334 1.7159801400000001E6
1334 1335 -8.562395700000001E5
1335 1334 -8.597405700000001E5
1335 1335 1.7159801400000001E6
1335 1336 -8.562395700000001E5
1336 1335 -8.597405700000001E5
1336 1336 1.7159801400000001E6
1336 1337 -8.562395700000001E5
1337 1336 -8.597405700000001E5
1337 1337 1.7159801400000001E6
1337 1338 -8.562395700000001E5
1338 1337 -8.597405700000001E5
1338 1338 1.7159801400000001E6
1338 1339 -8.562395700000001E5
1339 1338 -8.597405700000001E5
1339 1339 1.7159801400000001E6
1339 1340 -8.562395700000001E5
1340 1339 -8.597405700000001E5
1340 1340 1.7159801400000001E6
1340 1341 -8.562395700000001E5
1341 1340 -8.597405700000001E5
1341 1341 1.7159801400000001E6
1341 1342 -8.562395700000001E5
1342 1341 -8.597405700000001E5
1342 1342 1.7159801400000001E6
1342 1343 -8.562395700000001E5
1343 1342 -8.597405700000001E5
1343 1343 1.7159801400000001E6
1343 1344 -8.562395700000001E5
1344 1343 -8.597405700000001E5
1344 1344 1.7159801400000001E6
1344 1345 -8.562395700000001E5
1345 1344 -8.597405700000001E5
1345 1345 1.7159801400000001E6
1345 1346 -8.562395700000001E5
1346 1345 -8.597405700000001E5
1346 1346 1.7159801400000001E6
1346 1347 -8.562395700000001E5
1347 1346 -8.597405700000001E5
1347 1347 1.7159801400000001E6
1347 1348 -8.562395700000001E5
1348 1347 -8.597405700000001E5
1348 1348 1.7159801400000001E6
1348 1349 -8.562395700000001E5
1349 1348 -8.597405700000001E5
1349 1349 1.7159801400000001E6
1349 1350 -8.562395700000001E5
1350 1349 -8.597405700000001E5
1350 1350 1.7159801400000001E6
1350 1351 -8.562395700000001E5
1351 1350 -8.597405700000001E5
1351 1351 1.7159801400000001E6
1351 1352 -8.562395700000001E5
1352 1351 -8.597405700000001E5
1352 1352 1.7159801400000001E6
1352 1353 -8.562395700000001E5
1353 1352 -8.597405700000001E5
1353 1353 1.7159801400000001E6
1353 1354 -8.562395700000001E5
1354 1353 -8.597405700000001E5
1354 1354 1.7159801400000001E6
1354 1355 -8.562395700000001E5
1355 1354 -8.597405700000001E5
1355 1355 1.7159801400000001E6
1355 1356 -8.562395700000001E5
1356 1355 -8.597405700000001E5
1356 1356 1.7159801400000001E6
1356 1357 -8.562395700000001E5
1357 1356 -8.597405700000001E5
1357 1357 1.7159801400000001E6
1357 1358 -8.562395700000001E5
1358 1357 -8.597405700000001E5
1358 1358 1.7159801400000001E6
1358 1359 -8.562395700000001E5
1359 1358 -8.597405700000001E5
1359 1359 1.7159801400000001E6
1359 1360 -8.562395700000001E5
1360 1359 -8.597405700000001E5
1360 1360 1.7159801400000001E6
1360 1361 -8.562395700000001E5
1361 1360 -8.597405700000001E5
1361 1361 1.7159801400000001E6
1361 1362 -8.562395700000001E5
1362 1361 -8.597405700000001E5
1362 1362 1.7159801400000001E6
1362 1363 -8.562395700000001E5
1363 1362 -8.597405700000001E5
1363 1363 1.7159801400000001E6
1363 1364 -8.562395700000001E5
1364 1363 -8.597405700000001E5
1364 1364 1.7159801400000001E6
1364 1365 -8.562395700000001E5
1365 1364 -8.597405700000001E5
1365 1365 1.7159801400000001E6
1365 1366 -8.562395700000001E5
1366 1365 -8.597405700000001E5
1366 1366 1.7159801400000001E6
1366 1367 -8.562395700000001E5
1367 1366 -8.597405700000001E5
1367 1367 1.7159801400000001E6
1367 1368 -8.562395700000001E5
1368 1367 -8.597405700000001E5
1368 1368 1.7159801400000001E6
1368 1369 -8.562395700000001E5
1369 1368 -8.597405700000001E5
1369 1369 1.7159801400000001E6
1369 1370 -8.562395700000001E5
1370 1369 -8.597405700000001E5
1370 1370 1.7159801400000001E6
1370 1371 -8.562395700000001E5
1371 1370 -8.597405700000001E5
1371 1371 1.7159801400000001E6
1371 1372 -8.562395700000001E5
1372 1371 -8.597405700000001E5
1372 1372 1.7159801400000001E6
1372 1373 -8.562395700000001E5
1373 1372 -8.597405700000001E5
1373 1373 1.7159801400000001E6
1373 1374 -8.562395700000001E5
1374 1373 -8.597405700000001E5
1374 1374 1.7159801400000001E6
1374 1375 -8.562395700000001E5
1375 1374 -8.597405700000001E5
1375 1375 1.7159801400000001E6
1375 1376 -8.562395700000001E5
1376 1375 -8.597405700000001E5
1376 1376 1.7159801400000001E6
1376 1377 -8.562395700000001E5
1377 1376 -8.597405700000001E5
1377 1377 1.7159801400000001E6
1377 1378 -8.562395700000001E5
1378 1377 -8.597405700000001E5
1378 1378 1.7159801400000001E6
1378 1379 -8.562395700000001E5
1379 1378 -8.597405700000001E5
1379 1379 1.7159801400000001E6
1379 1380 -8.562395700000001E5
1380 1379 -8.597405700000001E5
1380 1380 1.7159801400000001E6
1380 1381 -8.562395700000001E5
1381 1380 -8.597405700000001E5
1381 1381 1.7159801400000001E6
1381 1382 -8.562395700000001E5
1382 1381 -8.597405700000001E5
1382 1382 1.7159801400000001E6
1382 1383 -8.562395700000001E5
1383 1382 -8.597405700000001E5
1383 1383 1.7159801400000001E6
1383 1384 -8.562395700000001E5
1384 1383 -8.597405700000001E5
1384 1384 1.7159801400000001E6
1384 1385 -8.562395700000001E5
1385 1384 -8.597405700000001E5
1385 1385 1.7159801400000001E6
1385 1386 -8.562395700000001E5
1386 1385 -8.597405700000001E5
1386 1386 1.7159801400000001E6
1386 1387 -8.562395700000001E5
1387 1386 -8.597405700000001E5
1387 1387 1.7159801400000001E6
1387 1388 -8.562395700000001E5
1388 1387 -8.597405700000001E5
1388 1388 1.7159801400000001E6
1388 1389 -8.562395700000001E5
1389 1388 -8.597405700000001E5
1389 1389 1.7159801400000001E6
1389 1390 -8.562395700000001E5
1390 1389 -8.597405700000001E5
1390 1390 1.7159801400000001E6
1390 1391 -8.562395700000001E5
1391 1390 -8.597405700000001E5
1391 1391 1.7159801400000001E6
1391 1392 -8.562395700000001E5
1392 1391 -8.597405700000001E5
1392 1392 1.7159801400000001E6
1392 1393 -8.562395700000001E5
1393 1392 -8.597405700000001E5
1393 1393 1.7159801400000001E6
1393 1394 -8.562395700000001E5
1394 1393 -8.597405700000001E5
1394 1394 1.7159801400000001E6
1394 1395 -8.562395700000001E5
1395 1394 -8.597405700000001E5
1395 1395 1.7159801400000001E6
1395 1396 -8.562395700000001E5
1396 1395 -8.597405700000001E5
1396 1396 1.7159801400000001E6
1396 1397 -8.562395700000001E5
1397 1396 -8.597405700000001E5
1397 1397 1.7159801400000001E6
1397 1398 -8.562395700000001E5
1398 1397 -8.597405700000001E5
1398 1398 1.7159801400000001E6
1398 1399 -8.562395700000001E5
1399 1398 -8.597405700000001E5
1399 1399 1.7159801400000001E6
1399 1400 -8.562395700000001E5
1400 1399 -8.597405700000001E5
1400 1400 1.7159801400000001E6
1400 1401 -8.562395700000001E5
1401 1400 -8.597405700000001E5
1401 1401 1.7159801400000001E6
1401 1402 -8.562395700000001E5
1402 1401 -8.597405700000001E5
1402 1402 1.7159801400000001E6
1402 1403 -8.562395700000001E5
1403 1402 -8.597405700000001E5
1403 1403 1.7159801400000001E6
1403 1404 -8.562395700000001E5
1404 1403 -8.597405700000001E5
1404 1404 1.7159801400000001E6
1404 1405 -8.562395700000001E5
1405 1404 -8.597405700000001E5
1405 1405 1.7159801400000001E6
1405 1406 -8.562395700000001E5
1406 1405 -8.597405700000001E5
1406 1406 1.7159801400000001E6
1406 1407 -8.562395700000001E5
1407 1406 -8.597405700000001E5
1407 1407 1.7159801400000001E6
1407 1408 -8.562395700000001E5
1408 1407 -8.597405700000001E5
1408 1408 1.7159801400000001E6
1408 1409 -8.562395700000001E5
1409 1408 -8.597405700000001E5
1409 1409 1.7159801400000001E6
1409 1410 -8.562395700000001E5
1410 1409 -8.597405700000001E5
1410 1410 1.7159801400000001E6
1410 1411 -8.562395700000001E5
1411 1410 -8.597405700000001E5
1411 1411 1.7159801400000001E6
1411 1412 -8.562395700000001E5
1412 1411 -8.597405700000001E5
1412 1412 1.7159801400000001E6
1412 1413 -8.562395700000001E5
1413 1412 -8.597405700000001E5
1413 1413 1.7159801400000001E6
1413 1414 -8.562395700000001E5
1414 1413 -8.597405700000001E5
1414 1414 1.7159801400000001E6
1414 1415 -8.562395700000001E5
1415 1414 -8.597405700000001E5
1415 1415 1.7159801400000001E6
1415 1416 -8.562395700000001E5
1416 1415 -8.597405700000001E5
1416 1416 1.7159801400000001E6
1416 1417 -8.562395700000001E5
1417 1416 -8.597405700000001E5
1417 1417 1.7159801400000001E6
1417 1418 -8.562395700000001E5
1418 1417 -8.597405700000001E5
1418 1418 1.7159801400000001E6
1418 1419 -8.562395700000001E5
1419 1418 -8.597405700000001E5
1419 1419 1.7159801400000001E6
1419 1420 -8.562395700000001E5
1420 1419 -8.597405700000001E5
1420 1420 1.7159801400000001E6
1420 1421 -8.562395700000001E5
1421 1420 -8.597405700000001E5
1421 1421 1.7159801400000001E6
1421 1422 -8.562395700000001E5
1422 1421 -8.597405700000001E5
1422 1422 1.7159801400000001E6
1422 1423 -8.562395700000001E5
1423 1422 -8.597405700000001E5
1423 1423 1.7159801400000001E6
1423 1424 -8.562395700000001E5
1424 1423 -8.597405700000001E5
1424 1424 1.7159801400000001E6
1424 1425 -8.562395700000001E5
1425 1424 -8.597405700000001E5
1425 1425 1.7159801400000001E6
1425 1426 -8.562395700000001E5
1426 1425 -8.597405700000001E5
1426 1426 1.7159801400000001E6
1426 1427 -8.562395700000001E5
1427 1426 -8.597405700000001E5
1427 1427 1.7159801400000001E6
1427 1428 -8.562395700000001E5
1428 1427 -8.597405700000001E5
1428 1428 1.7159801400000001E6
1428 1429 -8.562395700000001E5
1429 1428 -8.597405700000001E5
1429 1429 1.7159801400000001E6
1429 1430 -8.562395700000001E5
1430 1429 -8.597405700000001E5
1430 1430 1.7159801400000001E6
1430 1431 -8.562395700000001E5
1431 1430 -8.597405700000001E5
1431 1431 1.7159801400000001E6
1431 1432 -8.562395700000001E5
1432 1431 -8.597405700000001E5
1432 1432 1.7159801400000001E6
1432 1433 -8.562395700000001E5
1433 1432 -8.597405700000001E5
1433 1433 1.7159801400000001E6
1433 1434 -8.562395700000001E5
1434 1433 -8.597405700000001E5
1434 1434 1.7159801400000001E6
1434 1435 -8.562395700000001E5
1435 1434 -8.597405700000001E5
1435 1435 1.7159801400000001E6
1435 1436 -8.562395700000001E5
1436 1435 -8.597405700000001E5
1436 1436 1.7159801400000001E6
1436 1437 -8.562395700000001E5
1437 1436 -8.597405700000001E5
1437 1437 1.7159801400000001E6
1437 1438 -8.562395700000001E5
1438 1437 -8.597405700000001E5
1438 1438 1.7159801400000001E6
1438 1439 -8.562395700000001E5
1439 1438 -8.597405700000001E5
1439 1439 1.7159801400000001E6
1439 1440 -8.562395700000001E5
1440 1439 -8.597405700000001E5
1440 1440 1.7159801400000001E6
1440 1441 -8.562395700000001E5
1441 1440 -8.597405700000001E5
1441 1441 1.7159801400000001E6
1441 1442 -8.562395700000001E5
1442 1441 -8.597405700000001E5
1442 1442 1.7159801400000001E6
1442 1443 -8.562395700000001E5
1443 1442 -8.597405700000001E5
1443 1443 1.7159801400000001E6
1443 1444 -8.562395700000001E5
1444 1443 -8.597405700000001E5
1444 1444 1.7159801400000001E6
1444 1445 -8.562395700000001E5
1445 1444 -8.597405700000001E5
1445 1445 1.7159801400000001E6
1445 1446 -8.562395700000001E5
1446 1445 -8.597405700000001E5
1446 1446 1.7159801400000001E6
1446 1447 -8.562395700000001E5
1447 1446 -8.597405700000001E5
1447 1447 1.7159801400000001E6
1447 1448 -8.562395700000001E5
1448 1447 -8.597405700000001E5
1448 1448 1.7159801400000001E6
1448 1449 -8.562395700000001E5
1449 1448 -8.597405700000001E5
1449 1449 1.7159801400000001E6
1449 1450 -8.562395700000001E5
1450 1449 -8.597405700000001E5
1450 1450 1.7159801400000001E6
1450 1451 -8.562395700000001E5
1451 1450 -8.597405700000001E5
1451 1451 1.7159801400000001E6
1451 1452 -8.562395700000001E5
1452 1451 -8.597405700000001E5
1452 1452 1.7159801400000001E6
1452 1453 -8.562395700000001E5
1453 1452 -8.597405700000001E5
1453 1453 1.7159801400000001E6
1453 1454 -8.562395700000001E5
1454 1453 -8.597405700000001E5
1454 1454 1.7159801400000001E6
1454 1455 -8.562395700000001E5
1455 1454 -8.597405700000001E5
1455 1455 1.7159801400000001E6
1455 1456 -8.562395700000001E5
1456 1455 -8.597405700000001E5
1456 1456 1.7159801400000001E6
1456 1457 -8.562395700000001E5
1457 1456 -8.597405700000001E5
1457 1457 1.7159801400000001E6
1457 1458 -8.562395700000001E5
1458 1457 -8.597405700000001E5
1458 1458 1.7159801400000001E6
1458 1459 -8.562395700000001E5
1459 1458 -8.597405700000001E5
1459 1459 1.7159801400000001E6
1459 1460 -8.562395700000001E5
1460 1459 -8.597405700000001E5
1460 1460 1.7159801400000001E6
1460 1461 -8.562395700000001E5
1461 1460 -8.597405700000001E5
1461 1461 1.7159801400000001E6
1461 1462 -8.562395700000001E5
1462 1461 -8.597405700000001E5
1462 1462 1.7159801400000001E6
1462 1463 -8.562395700000001E5
1463 1462 -8.597405700000001E5
1463 1463 1.7159801400000001E6
1463 1464 -8.562395700000001E5
1464 1463 -8.597405700000001E5
1464 1464 1.7159801400000001E6
1464 1465 -8.562395700000001E5
1465 1464 -8.597405700000001E5
1465 1465 1.7159801400000001E6
1465 1466 -8.562395700000001E5
1466 1465 -8.597405700000001E5
1466 1466 1.7159801400000001E6
1466 1467 -8.562395700000001E5
1467 1466 -8.597405700000001E5
1467 1467 1.7159801400000001E6
1467 1468 -8.562395700000001E5
1468 1467 -8.597405700000001E5
1468 1468 1.7159801400000001E6
1468 1469 -8.562395700000001E5
1469 1468 -8.597405700000001E5
1469 1469 1.7159801400000001E6
1469 1470 -8.562395700000001E5
1470 1469 -8.597405700000001E5
1470 1470 1.7159801400000001E6
1470 1471 -8.562395700000001E5
1471 1470 -8.597405700000001E5
1471 1471 1.7159801400000001E6
1471 1472 -8.562395700000001E5
1472 1471 -8.597405700000001E5
1472 1472 1.7159801400000001E6
1472 1473 -8.562395700000001E5
1473 1472 -8.597405700000001E5
1473 1473 1.7159801400000001E6
1473 1474 -8.562395700000001E5
1474 1473 -8.597405700000001E5
1474 1474 1.7159801400000001E6
1474 1475 -8.562395700000001E5
1475 1474 -8.597405700000001E5
1475 1475 1.7159801400000001E6
1475 1476 -8.562395700000001E5
1476 1475 -8.597405700000001E5
1476 1476 1.7159801400000001E6
1476 1477 -8.562395700000001E5
1477 1476 -8.597405700000001E5
1477 1477 1.7159801400000001E6
1477 1478 -8.562395700000001E5
1478 1477 -8.597405700000001E5
1478 1478 1.7159801400000001E6
1478 1479 -8.562395700000001E5
1479 1478 -8.597405700000001E5
1479 1479 1.7159801400000001E6
1479 1480 -8.562395700000001E5
1480 1479 -8.597405700000001E5
1480 1480 1.7159801400000001E6
1480 1481 -8.562395700000001E5
1481 1480 -8.597405700000001E5
1481 1481 1.7159801400000001E6
1481 1482 -8.562395700000001E5
1482 1481 -8.597405700000001E5
1482 1482 1.7159801400000001E6
1482 1483 -8.562395700000001E5
1483 1482 -8.597405700000001E5
1483 1483 1.7159801400000001E6
1483 1484 -8.562395700000001E5
1484 1483 -8.597405700000001E5
1484 1484 1.7159801400000001E6
1484 1485 -8.562395700000001E5
1485 1484 -8.597405700000001E5
1485 1485 1.7159801400000001E6
1485 1486 -8.562395700000001E5
1486 1485 -8.597405700000001E5
1486 1486 1.7159801400000001E6
1486 1487 -8.562395700000001E5
1487 1486 -8.597405700000001E5
1487 1487 1.7159801400000001E6
1487 1488 -8.562395700000001E5
1488 1487 -8.597405700000001E5
1488 1488 1.7159801400000001E6
1488 1489 -8.562395700000001E5
1489 1488 -8.597405700000001E5
1489 1489 1.7159801400000001E6
1489 1490 -8.562395700000001E5
1490 1489 -8.597405700000001E5
1490 1490 1.7159801400000001E6
1490 1491 -8.562395700000001E5
1491 1490 -8.597405700000001E5
1491 1491 1.7159801400000001E6
1491 1492 -8.562395700000001E5
1492 1491 -8.597405700000001E5
1492 1492 1.7159801400000001E6
1492 1493 -8.562395700000001E5
1493 1492 -8.597405700000001E5
1493 1493 1.7159801400000001E6
1493 1494 -8.562395700000001E5
1494 1493 -8.597405700000001E5
1494 1494 1.7159801400000001E6
1494 1495 -8.562395700000001E5
1495 1494 -8.597405700000001E5
1495 1495 1.7159801400000001E6
1495 1496 -8.562395700000001E5
1496 1495 -8.597405700000001E5
1496 1496 1.7159801400000001E6
1496 1497 -8.562395700000001E5
1497 1496 -8.597405700000001E5
1497 1497 1.7159801400000001E6
1497 1498 -8.562395700000001E5
1498 1497 -8.597405700000001E5
1498 1498 1.7159801400000001E6
1498 1499 -8.562395700000001E5
1499 1498 -8.597405700000001E5
1499 1499 1.7159801400000001E6
1499 1500 -8.562395700000001E5
1500 1499 -8.597405700000001E5
1500 1500 1.7159801400000001E6
1500 1501 -8.562395700000001E5
1501 1500 -8.597405700000001E5
1501 1501 1.7159801400000001E6
1501 1502 -8.562395700000001E5
1502 1501 -8.597405700000001E5
1502 1502 1.7159801400000001E6
1502 1503 -8.562395700000001E5
1503 1502 -8.597405700000001E5
1503 1503 1.7159801400000001E6
1503 1504 -8.562395700000001E5
1504 1503 -8.597405700000001E5
1504 1504 1.7159801400000001E6
1504 1505 -8.562395700000001E5
1505 1504 -8.597405700000001E5
1505 1505 1.7159801400000001E6
1505 1506 -8.562395700000001E5
1506 1505 -8.597405700000001E5
1506 1506 1.7159801400000001E6
1506 1507 -8.562395700000001E5
1507 1506 -8.597405700000001E5
1507 1507 1.7159801400000001E6
1507 1508 -8.562395700000001E5
1508 1507 -8.597405700000001E5
1508 1508 1.7159801400000001E6
1508 1509 -8.562395700000001E5
1509 1508 -8.597405700000001E5
1509 1509 1.7159801400000001E6
1509 1510 -8.562395700000001E5
1510 1509 -8.597405700000001E5
1510 1510 1.7159801400000001E6
1510 1511 -8.562395700000001E5
1511 1510 -8.597405700000001E5
1511 1511 1.7159801400000001E6
1511 1512 -8.562395700000001E5
1512 1511 -8.597405700000001E5
1512 1512 1.7159801400000001E6
1512 1513 -8.562395700000001E5
1513 1512 -8.597405700000001E5
1513 1513 1.7159801400000001E6
1513 1514 -8.562395700000001E5
1514 1513 -8.597405700000001E5
1514 1514 1.7159801400000001E6
1514 1515 -8.562395700000001E5
1515 1514 -8.597405700000001E5
1515 1515 1.7159801400000001E6
1515 1516 -8.562395700000001E5
1516 1515 -8.597405700000001E5
1516 1516 1.7159801400000001E6
1516 1517 -8.562395700000001E5
1517 1516 -8.597405700000001E5
1517 1517 1.7159801400000001E6
1517 1518 -8.562395700000001E5
1518 1517 -8.597405700000001E5
1518 1518 1.7159801400000001E6
1518 1519 -8.562395700000001E5
1519 1518 -8.597405700000001E5
1519 1519 1.7159801400000001E6
1519 1520 -8.562395700000001E5
1520 1519 -8.597405700000001E5
1520 1520 1.7159801400000001E6
1520 1521 -8.562395700000001E5
1521 1520 -8.597405700000001E5
1521 1521 1.7159801400000001E6
1521 1522 -8.562395700000001E5
1522 1521 -8.597405700000001E5
1522 1522 1.7159801400000001E6
1522 1523 -8.562395700000001E5
1523 1522 -8.597405700000001E5
1523 1523 1.7159801400000001E6
1523 1524 -8.562395700000001E5
1524 1523 -8.597405700000001E5
1524 1524 1.7159801400000001E6
1524 1525 -8.562395700000001E5
1525 1524 -8.597405700000001E5
1525 1525 1.7159801400000001E6
1525 1526 -8.562395700000001E5
1526 1525 -8.597405700000001E5
1526 1526 1.7159801400000001E6
1526 1527 -8.562395700000001E5
1527 1526 -8.597405700000001E5
1527 1527 1.7159801400000001E6
1527 1528 -8.562395700000001E5
1528 1527 -8.597405700000001E5
1528 1528 1.7159801400000001E6
1528 1529 -8.562395700000001E5
1529 1528 -8.597405700000001E5
1529 1529 1.7159801400000001E6
1529 1530 -8.562395700000001E5
1530 1529 -8.597405700000001E5
1530 1530 1.7159801400000001E6
1530 1531 -8.562395700000001E5
1531 1530 -8.597405700000001E5
1531 1531 1.7159801400000001E6
1531 1532 -8.562395700000001E5
1532 1531 -8.597405700000001E5
1532 1532 1.7159801400000001E6
1532 1533 -8.562395700000001E5
1533 1532 -8.597405700000001E5
1533 1533 1.7159801400000001E6
1533 1534 -8.562395700000001E5
1534 1533 -8.597405700000001E5
1534 1534 1.7159801400000001E6
1534 1535 -8.562395700000001E5
1535 1534 -8.597405700000001E5
1535 1535 1.7159801400000001E6
1535 1536 -8.562395700000001E5
1536 1535 -8.597405700000001E5
1536 1536 1.7159801400000001E6
1536 1537 -8.562395700000001E5
1537 1536 -8.597405700000001E5
1537 1537 1.7159801400000001E6
1537 1538 -8.562395700000001E5
1538 1537 -8.597405700000001E5
1538 1538 1.7159801400000001E6
1538 1539 -8.562395700000001E5
1539 1538 -8.597405700000001E5
1539 1539 1.7159801400000001E6
1539 1540 -8.562395700000001E5
1540 1539 -8.597405700000001E5
1540 1540 1.7159801400000001E6
1540 1541 -8.562395700000001E5
1541 1540 -8.597405700000001E5
1541 1541 1.7159801400000001E6
1541 1542 -8.562395700000001E5
1542 1541 -8.597405700000001E5
1542 1542 1.7159801400000001E6
1542 1543 -8.562395700000001E5
1543 1542 -8.597405700000001E5
1543 1543 1.7159801400000001E6
1543 1544 -8.562395700000001E5
1544 1543 -8.597405700000001E5
1544 1544 1.7159801400000001E6
1544 1545 -8.562395700000001E5
1545 1544 -8.597405700000001E5
1545 1545 1.7159801400000001E6
1545 1546 -8.562395700000001E5
1546 1545 -8.597405700000001E5
1546 1546 1.7159801400000001E6
1546 1547 -8.562395700000001E5
1547 1546 -8.597405700000001E5
1547 1547 1.7159801400000001E6
1547 1548 -8.562395700000001E5
1548 1547 -8.597405700000001E5
1548 1548 1.7159801400000001E6
1548 1549 -8.562395700000001E5
1549 1548 -8.597405700000001E5
1549 1549 1.7159801400000001E6
1549 1550 -8.562395700000001E5
1550 1549 -8.597405700000001E5
1550 1550 1.7159801400000001E6
1550 1551 -8.562395700000001E5
1551 1550 -8.597405700000001E5
1551 1551 1.7159801400000001E6
1551 1552 -8.562395700000001E5
1552 1551 -8.597405700000001E5
1552 1552 1.7159801400000001E6
1552 1553 -8.562395700000001E5
1553 1552 -8.597405700000001E5
1553 1553 1.7159801400000001E6
1553 1554 -8.562395700000001E5
1554 1553 -8.597405700000001E5
1554 1554 1.7159801400000001E6
1554 1555 -8.562395700000001E5
1555 1554 -8.597405700000001E5
1555 1555 1.7159801400000001E6
1555 1556 -8.562395700000001E5
1556 1555 -8.597405700000001E5
1556 1556 1.7159801400000001E6
1556 1557 -8.562395700000001E5
1557 1556 -8.597405700000001E5
1557 1557 1.7159801400000001E6
1557 1558 -8.562395700000001E5
1558 1557 -8.597405700000001E5
1558 1558 1.7159801400000001E6
1558 1559 -8.562395700000001E5
1559 1558 -8.597405700000001E5
1559 1559 1.7159801400000001E6
1559 1560 -8.562395700000001E5
1560 1559 -8.597405700000001E5
1560 1560 1.7159801400000001E6
1560 1561 -8.562395700000001E5
1561 1560 -8.597405700000001E5
1561 1561 1.7159801400000001E6
1561 1562 -8.562395700000001E5
1562 1561 -8.597405700000001E5
1562 1562 1.7159801400000001E6
1562 1563 -8.562395700000001E5
1563 1562 -8.597405700000001E5
1563 1563 1.7159801400000001E6
1563 1564 -8.562395700000001E5
1564 1563 -8.597405700000001E5
1564 1564 1.7159801400000001E6
1564 1565 -8.562395700000001E5
1565 1564 -8.597405700000001E5
1565 1565 1.7159801400000001E6
1565 1566 -8.562395700000001E5
1566 1565 -8.597405700000001E5
1566 1566 1.7159801400000001E6
1566 1567 -8.562395700000001E5
1567 1566 -8.597405700000001E5
1567 1567 1.7159801400000001E6
1567 1568 -8.562395700000001E5
1568 1567 -8.597405700000001E5
1568 1568 1.7159801400000001E6
1568 1569 -8.562395700000001E5
1569 1568 -8.597405700000001E5
1569 1569 1.7159801400000001E6
1569 1570 -8.562395700000001E5
1570 1569 -8.597405700000001E5
1570 1570 1.7159801400000001E6
1570 1571 -8.562395700000001E5
1571 1570 -8.597405700000001E5
1571 1571 1.7159801400000001E6
1571 1572 -8.562395700000001E5
1572 1571 -8.597405700000001E5
1572 1572 1.7159801400000001E6
1572 1573 -8.562395700000001E5
1573 1572 -8.597405700000001E5
1573 1573 1.7159801400000001E6
1573 1574 -8.562395700000001E5
1574 1573 -8.597405700000001E5
1574 1574 1.7159801400000001E6
1574 1575 -8.562395700000001E5
1575 1574 -8.597405700000001E5
1575 1575 1.7159801400000001E6
1575 1576 -8.562395700000001E5
1576 1575 -8.597405700000001E5
1576 1576 1.7159801400000001E6
1576 1577 -8.562395700000001E5
1577 1576 -8.597405700000001E5
1577 1577 1.7159801400000001E6
1577 1578 -8.562395700000001E5
1578 1577 -8.597405700000001E5
1578 1578 1.7159801400000001E6
1578 1579 -8.562395700000001E5
1579 1578 -8.597405700000001E5
1579 1579 1.7159801400000001E6
1579 1580 -8.562395700000001E5
1580 1579 -8.597405700000001E5
1580 1580 1.7159801400000001E6
1580 1581 -8.562395700000001E5
1581 1580 -8.597405700000001E5
1581 1581 1.7159801400000001E6
1581 1582 -8.562395700000001E5
1582 1581 -8.597405700000001E5
1582 1582 1.7159801400000001E6
1582 1583 -8.562395700000001E5
1583 1582 -8.597405700000001E5
1583 1583 1.7159801400000001E6
1583 1584 -8.562395700000001E5
1584 1583 -8.597405700000001E5
1584 1584 1.7159801400000001E6
1584 1585 -8.562395700000001E5
1585 1584 -8.597405700000001E5
1585 1585 1.7159801400000001E6
1585 1586 -8.562395700000001E5
1586 1585 -8.597405700000001E5
1586 1586 1.7159801400000001E6
1586 1587 -8.562395700000001E5
1587 1586 -8.597405700000001E5
1587 1587 1.7159801400000001E6
1587 1588 -8.562395700000001E5
1588 1587 -8.597405700000001E5
1588 1588 1.7159801400000001E6
1588 1589 -8.562395700000001E5
1589 1588 -8.597405700000001E5
1589 1589 1.7159801400000001E6
1589 1590 -8.562395700000001E5
1590 1589 -8.597405700000001E5
1590 1590 1.7159801400000001E6
1590 1591 -8.562395700000001E5
1591 1590 -8.597405700000001E5
1591 1591 1.7159801400000001E6
1591 1592 -8.562395700000001E5
1592 1591 -8.597405700000001E5
1592 1592 1.7159801400000001E6
1592 1593 -8.562395700000001E5
1593 1592 -8.597405700000001E5
1593 1593 1.7159801400000001E6
1593 1594 -8.562395700000001E5
1594 1593 -8.597405700000001E5
1594 1594 1.7159801400000001E6
1594 1595 -8.562395700000001E5
1595 1594 -8.597405700000001E5
1595 1595 1.7159801400000001E6
1595 1596 -8.562395700000001E5
1596 1595 -8.597405700000001E5
1596 1596 1.7159801400000001E6
1596 1597 -8.562395700000001E5
1597 1596 -8.597405700000001E5
1597 1597 1.7159801400000001E6
1597 1598 -8.562395700000001E5
1598 1597 -8.597405700000001E5
1598 1598 1.7159801400000001E6
1598 1599 -8.562395700000001E5
1599 1598 -8.597405700000001E5
1599 1599 1.7159801400000001E6
1599 1600 -8.562395700000001E5
1600 1599 -8.597405700000001E5
1600 1600 1.7159801400000001E6
1600 1601 -8.562395700000001E5
1601 1600 -8.597405700000001E5
1601 1601 1.7159801400000001E6
1601 1602 -8.562395700000001E5
1602 1601 -8.597405700000001E5
1602 1602 1.7159801400000001E6
1602 1603 -8.562395700000001E5
1603 1602 -8.597405700000001E5
1603 1603 1.7159801400000001E6
1603 1604 -8.562395700000001E5
1604 1603 -8.597405700000001E5
1604 1604 1.7159801400000001E6
1604 1605 -8.562395700000001E5
1605 1604 -8.597405700000001E5
1605 1605 1.7159801400000001E6
1605 1606 -8.562395700000001E5
1606 1605 -8.597405700000001E5
1606 1606 1.7159801400000001E6
1606 1607 -8.562395700000001E5
1607 1606 -8.597405700000001E5
1607 1607 1.7159801400000001E6
1607 1608 -8.562395700000001E5
1608 1607 -8.597405700000001E5
1608 1608 1.7159801400000001E6
1608 1609 -8.562395700000001E5
1609 1608 -8.597405700000001E5
1609 1609 1.7159801400000001E6
1609 1610 -8.562395700000001E5
1610 1609 -8.597405700000001E5
1610 1610 1.7159801400000001E6
1610 1611 -8.562395700000001E5
1611 1610 -8.597405700000001E5
1611 1611 1.7159801400000001E6
1611 1612 -8.562395700000001E5
1612 1611 -8.597405700000001E5
1612 1612 1.7159801400000001E6
1612 1613 -8.562395700000001E5
1613 1612 -8.597405700000001E5
1613 1613 1.7159801400000001E6
1613 1614 -8.562395700000001E5
1614 1613 -8.597405700000001E5
1614 1614 1.7159801400000001E6
1614 1615 -8.562395700000001E5
1615 1614 -8.597405700000001E5
1615 1615 1.7159801400000001E6
1615 1616 -8.562395700000001E5
1616 1615 -8.597405700000001E5
1616 1616 1.7159801400000001E6
1616 1617 -8.562395700000001E5
1617 1616 -8.597405700000001E5
1617 1617 1.7159801400000001E6
1617 1618 -8.562395700000001E5
1618 1617 -8.597405700000001E5
1618 1618 1.7159801400000001E6
1618 1619 -8.562395700000001E5
1619 1618 -8.597405700000001E5
1619 1619 1.7159801400000001E6
1619 1620 -8.562395700000001E5
1620 1619 -8.597405700000001E5
1620 1620 1.7159801400000001E6
1620 1621 -8.562395700000001E5
1621 1620 -8.597405700000001E5
1621 1621 1.7159801400000001E6
1621 1622 -8.562395700000001E5
1622 1621 -8.597405700000001E5
1622 1622 1.7159801400000001E6
1622 1623 -8.562395700000001E5
1623 1622 -8.597405700000001E5
1623 1623 1.7159801400000001E6
1623 1624 -8.562395700000001E5
1624 1623 -8.597405700000001E5
1624 1624 1.7159801400000001E6
1624 1625 -8.562395700000001E5
1625 1624 -8.597405700000001E5
1625 1625 1.7159801400000001E6
1625 1626 -8.562395700000001E5
1626 1625 -8.597405700000001E5
1626 1626 1.7159801400000001E6
1626 1627 -8.562395700000001E5
1627 1626 -8.597405700000001E5
1627 1627 1.7159801400000001E6
1627 1628 -8.562395700000001E5
1628 1627 -8.597405700000001E5
1628 1628 1.7159801400000001E6
1628 1629 -8.562395700000001E5
1629 1628 -8.597405700000001E5
1629 1629 1.7159801400000001E6
1629 1630 -8.562395700000001E5
1630 1629 -8.597405700000001E5
1630 1630 1.7159801400000001E6
1630 1631 -8.562395700000001E5
1631 1630 -8.597405700000001E5
1631 1631 1.7159801400000001E6
1631 1632 -8.562395700000001E5
1632 1631 -8.597405700000001E5
1632 1632 1.7159801400000001E6
1632 1633 -8.562395700000001E5
1633 1632 -8.597405700000001E5
1633 1633 1.7159801400000001E6
1633 1634 -8.562395700000001E5
1634 1633 -8.597405700000001E5
1634 1634 1.7159801400000001E6
1634 1635 -8.562395700000001E5
1635 1634 -8.597405700000001E5
1635 1635 1.7159801400000001E6
1635 1636 -8.562395700000001E5
1636 1635 -8.597405700000001E5
1636 1636 1.7159801400000001E6
1636 1637 -8.562395700000001E5
1637 1636 -8.597405700000001E5
1637 1637 1.7159801400000001E6
1637 1638 -8.562395700000001E5
1638 1637 -8.597405700000001E5
1638 1638 1.7159801400000001E6
1638 1639 -8.562395700000001E5
1639 1638 -8.597405700000001E5
1639 1639 1.7159801400000001E6
1639 1640 -8.562395700000001E5
1640 1639 -8.597405700000001E5
1640 1640 1.7159801400000001E6
1640 1641 -8.562395700000001E5
1641 1640 -8.597405700000001E5
1641 1641 1.7159801400000001E6
1641 1642 -8.562395700000001E5
1642 1641 -8.597405700000001E5
1642 1642 1.7159801400000001E6
1642 1643 -8.562395700000001E5
1643 1642 -8.597405700000001E5
1643 1643 1.7159801400000001E6
1643 1644 -8.562395700000001E5
1644 1643 -8.597405700000001E5
1644 1644 1.7159801400000001E6
1644 1645 -8.562395700000001E5
1645 1644 -8.597405700000001E5
1645 1645 1.7159801400000001E6
1645 1646 -8.562395700000001E5
1646 1645 -8.597405700000001E5
1646 1646 1.7159801400000001E6
1646 1647 -8.562395700000001E5
1647 1646 -8.597405700000001E5
1647 1647 1.7159801400000001E6
1647 1648 -8.562395700000001E5
1648 1647 -8.597405700000001E5
1648 1648 1.7159801400000001E6
1648 1649 -8.562395700000001E5
1649 1648 -8.597405700000001E5
1649 1649 1.7159801400000001E6
1649 1650 -8.562395700000001E5
1650 1649 -8.597405700000001E5
1650 1650 1.7159801400000001E6
1650 1651 -8.562395700000001E5
1651 1650 -8.597405700000001E5
1651 1651 1.7159801400000001E6
1651 1652 -8.562395700000001E5
1652 1651 -8.597405700000001E5
1652 1652 1.7159801400000001E6
1652 1653 -8.562395700000001E5
1653 1652 -8.597405700000001E5
1653 1653 1.7159801400000001E6
1653 1654 -8.562395700000001E5
1654 1653 -8.597405700000001E5
1654 1654 1.7159801400000001E6
1654 1655 -8.562395700000001E5
1655 1654 -8.597405700000001E5
1655 1655 1.7159801400000001E6
1655 1656 -8.562395700000001E5
1656 1655 -8.597405700000001E5
1656 1656 1.7159801400000001E6
1656 1657 -8.562395700000001E5
1657 1656 -8.597405700000001E5
1657 1657 1.7159801400000001E6
1657 1658 -8.562395700000001E5
1658 1657 -8.597405700000001E5
1658 1658 1.7159801400000001E6
1658 1659 -8.562395700000001E5
1659 1658 -8.597405700000001E5
1659 1659 1.7159801400000001E6
1659 1660 -8.562395700000001E5
1660 1659 -8.597405700000001E5
1660 1660 1.7159801400000001E6
1660 1661 -8.562395700000001E5
1661 1660 -8.597405700000001E5
1661 1661 1.7159801400000001E6
1661 1662 -8.562395700000001E5
1662 1661 -8.597405700000001E5
1662 1662 1.7159801400000001E6
1662 1663 -8.562395700000001E5
1663 1662 -8.597405700000001E5
1663 1663 1.7159801400000001E6
1663 1664 -8.562395700000001E5
1664 1663 -8.597405700000001E5
1664 1664 1.7159801400000001E6
1664 1665 -8.562395700000001E5
1665 1664 -8.597405700000001E5
1665 1665 1.7159801400000001E6
1665 1666 -8.562395700000001E5
1666 1665 -8.597405700000001E5
1666 1666 1.7159801400000001E6
1666 1667 -8.562395700000001E5
1667 1666 -8.597405700000001E5
1667 1667 1.7159801400000001E6
1667 1668 -8.562395700000001E5
1668 1667 -8.597405700000001E5
1668 1668 1.7159801400000001E6
1668 1669 -8.562395700000001E5
1669 1668 -8.597405700000001E5
1669 1669 1.7159801400000001E6
1669 1670 -8.562395700000001E5
1670 1669 -8.597405700000001E5
1670 1670 1.7159801400000001E6
1670 1671 -8.562395700000001E5
1671 1670 -8.597405700000001E5
1671 1671 1.7159801400000001E6
1671 1672 -8.562395700000001E5
1672 1671 -8.597405700000001E5
1672 1672 1.7159801400000001E6
1672 1673 -8.562395700000001E5
1673 1672 -8.597405700000001E5
1673 1673 1.7159801400000001E6
1673 1674 -8.562395700000001E5
1674 1673 -8.597405700000001E5
1674 1674 1.7159801400000001E6
1674 1675 -8.562395700000001E5
1675 1674 -8.597405700000001E5
1675 1675 1.7159801400000001E6
1675 1676 -8.562395700000001E5
1676 1675 -8.597405700000001E5
1676 1676 1.7159801400000001E6
1676 1677 -8.562395700000001E5
1677 1676 -8.597405700000001E5
1677 1677 1.7159801400000001E6
1677 1678 -8.562395700000001E5
1678 1677 -8.597405700000001E5
1678 1678 1.7159801400000001E6
1678 1679 -8.562395700000001E5
1679 1678 -8.597405700000001E5
1679 1679 1.7159801400000001E6
1679 1680 -8.562395700000001E5
1680 1679 -8.597405700000001E5
1680 1680 1.7159801400000001E6
1680 1681 -8.562395700000001E5
1681 1680 -8.597405700000001E5
1681 1681 1.7159801400000001E6
1681 1682 -8.562395700000001E5
1682 1681 -8.597405700000001E5
1682 1682 1.7159801400000001E6
1682 1683 -8.562395700000001E5
1683 1682 -8.597405700000001E5
1683 1683 1.7159801400000001E6
1683 1684 -8.562395700000001E5
1684 1683 -8.597405700000001E5
1684 1684 1.7159801400000001E6
1684 1685 -8.562395700000001E5
1685 1684 -8.597405700000001E5
1685 1685 1.7159801400000001E6
1685 1686 -8.562395700000001E5
1686 1685 -8.597405700000001E5
1686 1686 1.7159801400000001E6
1686 1687 -8.562395700000001E5
1687 1686 -8.597405700000001E5
1687 1687 1.7159801400000001E6
1687 1688 -8.562395700000001E5
1688 1687 -8.597405700000001E5
1688 1688 1.7159801400000001E6
1688 1689 -8.562395700000001E5
1689 1688 -8.597405700000001E5
1689 1689 1.7159801400000001E6
1689 1690 -8.562395700000001E5
1690 1689 -8.597405700000001E5
1690 1690 1.7159801400000001E6
1690 1691 -8.562395700000001E5
1691 1690 -8.597405700000001E5
1691 1691 1.7159801400000001E6
1691 1692 -8.562395700000001E5
1692 1691 -8.597405700000001E5
1692 1692 1.7159801400000001E6
1692 1693 -8.562395700000001E5
1693 1692 -8.597405700000001E5
1693 1693 1.7159801400000001E6
1693 1694 -8.562395700000001E5
1694 1693 -8.597405700000001E5
1694 1694 1.7159801400000001E6
1694 1695 -8.562395700000001E5
1695 1694 -8.597405700000001E5
1695 1695 1.7159801400000001E6
1695 1696 -8.562395700000001E5
1696 1695 -8.597405700000001E5
1696 1696 1.7159801400000001E6
1696 1697 -8.562395700000001E5
1697 1696 -8.597405700000001E5
1697 1697 1.7159801400000001E6
1697 1698 -8.562395700000001E5
1698 1697 -8.597405700000001E5
1698 1698 1.7159801400000001E6
1698 1699 -8.562395700000001E5
1699 1698 -8.597405700000001E5
1699 1699 1.7159801400000001E6
1699 1700 -8.562395700000001E5
1700 1699 -8.597405700000001E5
1700 1700 1.7159801400000001E6
1700 1701 -8.562395700000001E5
1701 1700 -8.597405700000001E5
1701 1701 1.7159801400000001E6
1701 1702 -8.562395700000001E5
1702 1701 -8.597405700000001E5
1702 1702 1.7159801400000001E6
1702 1703 -8.562395700000001E5
1703 1702 -8.597405700000001E5
1703 1703 1.7159801400000001E6
1703 1704 -8.562395700000001E5
1704 1703 -8.597405700000001E5
1704 1704 1.7159801400000001E6
1704 1705 -8.562395700000001E5
1705 1704 -8.597405700000001E5
1705 1705 1.7159801400000001E6
1705 1706 -8.562395700000001E5
1706 1705 -8.597405700000001E5
1706 1706 1.7159801400000001E6
1706 1707 -8.562395700000001E5
1707 1706 -8.597405700000001E5
1707 1707 1.7159801400000001E6
1707 1708 -8.562395700000001E5
1708 1707 -8.597405700000001E5
1708 1708 1.7159801400000001E6
1708 1709 -8.562395700000001E5
1709 1708 -8.597405700000001E5
1709 1709 1.7159801400000001E6
1709 1710 -8.562395700000001E5
1710 1709 -8.597405700000001E5
1710 1710 1.7159801400000001E6
1710 1711 -8.562395700000001E5
1711 1710 -8.597405700000001E5
1711 1711 1.7159801400000001E6
1711 1712 -8.562395700000001E5
1712 1711 -8.597405700000001E5
1712 1712 1.7159801400000001E6
1712 1713 -8.562395700000001E5
1713 1712 -8.597405700000001E5
1713 1713 1.7159801400000001E6
1713 1714 -8.562395700000001E5
1714 1713 -8.597405700000001E5
1714 1714 1.7159801400000001E6
1714 1715 -8.562395700000001E5
1715 1714 -8.597405700000001E5
1715 1715 1.7159801400000001E6
1715 1716 -8.562395700000001E5
1716 1715 -8.597405700000001E5
1716 1716 1.7159801400000001E6
1716 1717 -8.562395700000001E5
1717 1716 -8.597405700000001E5
1717 1717 1.7159801400000001E6
1717 1718 -8.562395700000001E5
1718 1717 -8.597405700000001E5
1718 1718 1.7159801400000001E6
1718 1719 -8.562395700000001E5
1719 1718 -8.597405700000001E5
1719 1719 1.7159801400000001E6
1719 1720 -8.562395700000001E5
1720 1719 -8.597405700000001E5
1720 1720 1.7159801400000001E6
1720 1721 -8.562395700000001E5
1721 1720 -8.597405700000001E5
1721 1721 1.7159801400000001E6
1721 1722 -8.562395700000001E5
1722 1721 -8.597405700000001E5
1722 1722 1.7159801400000001E6
1722 1723 -8.562395700000001E5
1723 1722 -8.597405700000001E5
1723 1723 1.7159801400000001E6
1723 1724 -8.562395700000001E5
1724 1723 -8.597405700000001E5
1724 1724 1.7159801400000001E6
1724 1725 -8.562395700000001E5
1725 1724 -8.597405700000001E5
1725 1725 1.7159801400000001E6
1725 1726 -8.562395700000001E5
1726 1725 -8.597405700000001E5
1726 1726 1.7159801400000001E6
1726 1727 -8.562395700000001E5
1727 1726 -8.597405700000001E5
1727 1727 1.7159801400000001E6
1727 1728 -8.562395700000001E5
1728 1727 -8.597405700000001E5
1728 1728 1.7159801400000001E6
1728 1729 -8.562395700000001E5
1729 1728 -8.597405700000001E5
1729 1729 1.7159801400000001E6
1729 1730 -8.562395700000001E5
1730 1729 -8.597405700000001E5
1730 1730 1.7159801400000001E6
1730 1731 -8.562395700000001E5
1731 1730 -8.597405700000001E5
1731 1731 1.7159801400000001E6
1731 1732 -8.562395700000001E5
1732 1731 -8.597405700000001E5
1732 1732 1.7159801400000001E6
1732 1733 -8.562395700000001E5
1733 1732 -8.597405700000001E5
1733 1733 1.7159801400000001E6
1733 1734 -8.562395700000001E5
1734 1733 -8.597405700000001E5
1734 1734 1.7159801400000001E6
1734 1735 -8.562395700000001E5
1735 1734 -8.597405700000001E5
1735 1735 1.7159801400000001E6
1735 1736 -8.562395700000001E5
1736 1735 -8.597405700000001E5
1736 1736 1.7159801400000001E6
1736 1737 -8.562395700000001E5
1737 1736 -8.597405700000001E5
1737 1737 1.7159801400000001E6
1737 1738 -8.562395700000001E5
1738 1737 -8.597405700000001E5
1738 1738 1.7159801400000001E6
1738 1739 -8.562395700000001E5
1739 1738 -8.597405700000001E5
1739 1739 1.7159801400000001E6
1739 1740 -8.562395700000001E5
1740 1739 -8.597405700000001E5
1740 1740 1.7159801400000001E6
1740 1741 -8.562395700000001E5
1741 1740 -8.597405700000001E5
1741 1741 1.7159801400000001E6
1741 1742 -8.562395700000001E5
1742 1741 -8.597405700000001E5
1742 1742 1.7159801400000001E6
1742 1743 -8.562395700000001E5
1743 1742 -8.597405700000001E5
1743 1743 1.7159801400000001E6
1743 1744 -8.562395700000001E5
1744 1743 -8.597405700000001E5
1744 1744 1.7159801400000001E6
1744 1745 -8.562395700000001E5
1745 1744 -8.597405700000001E5
1745 1745 1.7159801400000001E6
1745 1746 -8.562395700000001E5
1746 1745 -8.597405700000001E5
1746 1746 1.7159801400000001E6
1746 1747 -8.562395700000001E5
1747 1746 -8.597405700000001E5
1747 1747 1.7159801400000001E6
1747 1748 -8.562395700000001E5
1748 1747 -8.597405700000001E5
1748 1748 1.7159801400000001E6
1748 1749 -8.562395700000001E5
1749 1748 -8.597405700000001E5
1749 1749 1.7159801400000001E6
1749 1750 -8.562395700000001E5
1750 1749 -8.597405700000001E5
1750 1750 1.7159801400000001E6
1750 1751 -8.562395700000001E5
1751 1750 -8.597405700000001E5
1751 1751 1.7159801400000001E6
1751 1752 -8.562395700000001E5
1752 1751 -8.597405700000001E5
1752 1752 1.7159801400000001E6
1752 1753 -8.562395700000001E5
1753 1752 -8.597405700000001E5
1753 1753 1.7159801400000001E6
1753 1754 -8.562395700000001E5
1754 1753 -8.597405700000001E5
1754 1754 1.7159801400000001E6
1754 1755 -8.562395700000001E5
1755 1754 -8.597405700000001E5
1755 1755 1.7159801400000001E6
1755 1756 -8.562395700000001E5
1756 1755 -8.597405700000001E5
1756 1756 1.7159801400000001E6
1756 1757 -8.562395700000001E5
1757 1756 -8.597405700000001E5
1757 1757 1.7159801400000001E6
1757 1758 -8.562395700000001E5
1758 1757 -8.597405700000001E5
1758 1758 1.7159801400000001E6
1758 1759 -8.562395700000001E5
1759 1758 -8.597405700000001E5
1759 1759 1.7159801400000001E6
1759 1760 -8.562395700000001E5
1760 1759 -8.597405700000001E5
1760 1760 1.7159801400000001E6
1760 1761 -8.562395700000001E5
1761 1760 -8.597405700000001E5
1761 1761 1.7159801400000001E6
1761 1762 -8.562395700000001E5
1762 1761 -8.597405700000001E5
1762 1762 1.7159801400000001E6
1762 1763 -8.562395700000001E5
1763 1762 -8.597405700000001E5
1763 1763 1.7159801400000001E6
1763 1764 -8.562395700000001E5
1764 1763 -8.597405700000001E5
1764 1764 1.7159801400000001E6
1764 1765 -8.562395700000001E5
1765 1764 -8.597405700000001E5
1765 1765 1.7159801400000001E6
1765 1766 -8.562395700000001E5
1766 1765 -8.597405700000001E5
1766 1766 1.7159801400000001E6
1766 1767 -8.562395700000001E5
1767 1766 -8.597405700000001E5
1767 1767 1.7159801400000001E6
1767 1768 -8.562395700000001E5
1768 1767 -8.597405700000001E5
1768 1768 1.7159801400000001E6
1768 1769 -8.562395700000001E5
1769 1768 -8.597405700000001E5
1769 1769 1.7159801400000001E6
1769 1770 -8.562395700000001E5
1770 1769 -8.597405700000001E5
1770 1770 1.7159801400000001E6
1770 1771 -8.562395700000001E5
1771 1770 -8.597405700000001E5
1771 1771 1.7159801400000001E6
1771 1772 -8.562395700000001E5
1772 1771 -8.597405700000001E5
1772 1772 1.7159801400000001E6
1772 1773 -8.562395700000001E5
1773 1772 -8.597405700000001E5
1773 1773 1.7159801400000001E6
1773 1774 -8.562395700000001E5
1774 1773 -8.597405700000001E5
1774 1774 1.7159801400000001E6
1774 1775 -8.562395700000001E5
1775 1774 -8.597405700000001E5
1775 1775 1.7159801400000001E6
1775 1776 -8.562395700000001E5
1776 1775 -8.597405700000001E5
1776 1776 1.7159801400000001E6
1776 1777 -8.562395700000001E5
1777 1776 -8.597405700000001E5
1777 1777 1.7159801400000001E6
1777 1778 -8.562395700000001E5
1778 1777 -8.597405700000001E5
1778 1778 1.7159801400000001E6
1778 1779 -8.562395700000001E5
1779 1778 -8.597405700000001E5
1779 1779 1.7159801400000001E6
1779 1780 -8.562395700000001E5
1780 1779 -8.597405700000001E5
1780 1780 1.7159801400000001E6
1780 1781 -8.562395700000001E5
1781 1780 -8.597405700000001E5
1781 1781 1.7159801400000001E6
1781 1782 -8.562395700000001E5
1782 1781 -8.597405700000001E5
1782 1782 1.7159801400000001E6
1782 1783 -8.562395700000001E5
1783 1782 -8.597405700000001E5
1783 1783 1.7159801400000001E6
1783 1784 -8.562395700000001E5
1784 1783 -8.597405700000001E5
1784 1784 1.7159801400000001E6
1784 1785 -8.562395700000001E5
1785 1784 -8.597405700000001E5
1785 1785 1.7159801400000001E6
1785 1786 -8.562395700000001E5
1786 1785 -8.597405700000001E5
1786 1786 1.7159801400000001E6
1786 1787 -8.562395700000001E5
1787 1786 -8.597405700000001E5
1787 1787 1.7159801400000001E6
1787 1788 -8.562395700000001E5
1788 1787 -8.597405700000001E5
1788 1788 1.7159801400000001E6
1788 1789 -8.562395700000001E5
1789 1788 -8.597405700000001E5
1789 1789 1.7159801400000001E6
1789 1790 -8.562395700000001E5
1790 1789 -8.597405700000001E5
1790 1790 1.7159801400000001E6
1790 1791 -8.562395700000001E5
1791 1790 -8.597405700000001E5
1791 1791 1.7159801400000001E6
1791 1792 -8.562395700000001E5
1792 1791 -8.597405700000001E5
1792 1792 1.7159801400000001E6
1792 1793 -8.562395700000001E5
1793 1792 -8.597405700000001E5
1793 1793 1.7159801400000001E6
1793 1794 -8.562395700000001E5
1794 1793 -8.597405700000001E5
1794 1794 1.7159801400000001E6
1794 1795 -8.562395700000001E5
1795 1794 -8.597405700000001E5
1795 1795 1.7159801400000001E6
1795 1796 -8.562395700000001E5
1796 1795 -8.597405700000001E5
1796 1796 1.7159801400000001E6
1796 1797 -8.562395700000001E5
1797 1796 -8.597405700000001E5
1797 1797 1.7159801400000001E6
1797 1798 -8.562395700000001E5
1798 1797 -8.597405700000001E5
1798 1798 1.7159801400000001E6
1798 1799 -8.562395700000001E5
1799 1798 -8.597405700000001E5
1799 1799 1.7159801400000001E6
1799 1800 -8.562395700000001E5
1800 1799 -8.597405700000001E5
1800 1800 1.7159801400000001E6
1800 1801 -8.562395700000001E5
1801 1800 -8.597405700000001E5
1801 1801 1.7159801400000001E6
1801 1802 -8.562395700000001E5
1802 1801 -8.597405700000001E5
1802 1802 1.7159801400000001E6
1802 1803 -8.562395700000001E5
1803 1802 -8.597405700000001E5
1803 1803 1.7159801400000001E6
1803 1804 -8.562395700000001E5
1804 1803 -8.597405700000001E5
1804 1804 1.7159801400000001E6
1804 1805 -8.562395700000001E5
1805 1804 -8.597405700000001E5
1805 1805 1.7159801400000001E6
1805 1806 -8.562395700000001E5
1806 1805 -8.597405700000001E5
1806 1806 1.7159801400000001E6
1806 1807 -8.562395700000001E5
1807 1806 -8.597405700000001E5
1807 1807 1.7159801400000001E6
1807 1808 -8.562395700000001E5
1808 1807 -8.597405700000001E5
1808 1808 1.7159801400000001E6
1808 1809 -8.562395700000001E5
1809 1808 -8.597405700000001E5
1809 1809 1.7159801400000001E6
1809 1810 -8.562395700000001E5
1810 1809 -8.597405700000001E5
1810 1810 1.7159801400000001E6
1810 1811 -8.562395700000001E5
1811 1810 -8.597405700000001E5
1811 1811 1.7159801400000001E6
1811 1812 -8.562395700000001E5
1812 1811 -8.597405700000001E5
1812 1812 1.7159801400000001E6
1812 1813 -8.562395700000001E5
1813 1812 -8.597405700000001E5
1813 1813 1.7159801400000001E6
1813 1814 -8.562395700000001E5
1814 1813 -8.597405700000001E5
1814 1814 1.7159801400000001E6
1814 1815 -8.562395700000001E5
1815 1814 -8.597405700000001E5
1815 1815 1.7159801400000001E6
1815 1816 -8.562395700000001E5
1816 1815 -8.597405700000001E5
1816 1816 1.7159801400000001E6
1816 1817 -8.562395700000001E5
1817 1816 -8.597405700000001E5
1817 1817 1.7159801400000001E6
1817 1818 -8.562395700000001E5
1818 1817 -8.597405700000001E5
1818 1818 1.7159801400000001E6
1818 1819 -8.562395700000001E5
1819 1818 -8.597405700000001E5
1819 1819 1.7159801400000001E6
1819 1820 -8.562395700000001E5
1820 1819 -8.597405700000001E5
1820 1820 1.7159801400000001E6
1820 1821 -8.562395700000001E5
1821 1820 -8.597405700000001E5
1821 1821 1.7159801400000001E6
1821 1822 -8.562395700000001E5
1822 1821 -8.597405700000001E5
1822 1822 1.7159801400000001E6
1822 1823 -8.562395700000001E5
1823 1822 -8.597405700000001E5
1823 1823 1.7159801400000001E6
1823 1824 -8.562395700000001E5
1824 1823 -8.597405700000001E5
1824 1824 1.7159801400000001E6
1824 1825 -8.562395700000001E5
1825 1824 -8.597405700000001E5
1825 1825 1.7159801400000001E6
1825 1826 -8.562395700000001E5
1826 1825 -8.597405700000001E5
1826 1826 1.7159801400000001E6
1826 1827 -8.562395700000001E5
1827 1826 -8.597405700000001E5
1827 1827 1.7159801400000001E6
1827 1828 -8.562395700000001E5
1828 1827 -8.597405700000001E5
1828 1828 1.7159801400000001E6
1828 1829 -8.562395700000001E5
1829 1828 -8.597405700000001E5
1829 1829 1.7159801400000001E6
1829 1830 -8.562395700000001E5
1830 1829 -8.597405700000001E5
1830 1830 1.7159801400000001E6
1830 1831 -8.562395700000001E5
1831 1830 -8.597405700000001E5
1831 1831 1.7159801400000001E6
1831 1832 -8.562395700000001E5
1832 1831 -8.597405700000001E5
1832 1832 1.7159801400000001E6
1832 1833 -8.562395700000001E5
1833 1832 -8.597405700000001E5
1833 1833 1.7159801400000001E6
1833 1834 -8.562395700000001E5
1834 1833 -8.597405700000001E5
1834 1834 1.7159801400000001E6
1834 1835 -8.562395700000001E5
1835 1834 -8.597405700000001E5
1835 1835 1.7159801400000001E6
1835 1836 -8.562395700000001E5
1836 1835 -8.597405700000001E5
1836 1836 1.7159801400000001E6
1836 1837 -8.562395700000001E5
1837 1836 -8.597405700000001E5
1837 1837 1.7159801400000001E6
1837 1838 -8.562395700000001E5
1838 1837 -8.597405700000001E5
1838 1838 1.7159801400000001E6
1838 1839 -8.562395700000001E5
1839 1838 -8.597405700000001E5
1839 1839 1.7159801400000001E6
1839 1840 -8.562395700000001E5
1840 1839 -8.597405700000001E5
1840 1840 1.7159801400000001E6
1840 1841 -8.562395700000001E5
1841 1840 -8.597405700000001E5
1841 1841 1.7159801400000001E6
1841 1842 -8.562395700000001E5
1842 1841 -8.597405700000001E5
1842 1842 1.7159801400000001E6
1842 1843 -8.562395700000001E5
1843 1842 -8.597405700000001E5
1843 1843 1.7159801400000001E6
1843 1844 -8.562395700000001E5
1844 1843 -8.597405700000001E5
1844 1844 1.7159801400000001E6
1844 1845 -8.562395700000001E5
1845 1844 -8.597405700000001E5
1845 1845 1.7159801400000001E6
1845 1846 -8.562395700000001E5
1846 1845 -8.597405700000001E5
1846 1846 1.7159801400000001E6
1846 1847 -8.562395700000001E5
1847 1846 -8.597405700000001E5
1847 1847 1.7159801400000001E6
1847 1848 -8.562395700000001E5
1848 1847 -8.597405700000001E5
1848 1848 1.7159801400000001E6
1848 1849 -8.562395700000001E5
1849 1848 -8.597405700000001E5
1849 1849 1.7159801400000001E6
1849 1850 -8.562395700000001E5
1850 1849 -8.597405700000001E5
1850 1850 1.7159801400000001E6
1850 1851 -8.562395700000001E5
1851 1850 -8.597405700000001E5
1851 1851 1.7159801400000001E6
1851 1852 -8.562395700000001E5
1852 1851 -8.597405700000001E5
1852 1852 1.7159801400000001E6
1852 1853 -8.562395700000001E5
1853 1852 -8.597405700000001E5
1853 1853 1.7159801400000001E6
1853 1854 -8.562395700000001E5
1854 1853 -8.597405700000001E5
1854 1854 1.7159801400000001E6
1854 1855 -8.562395700000001E5
1855 1854 -8.597405700000001E5
1855 1855 1.7159801400000001E6
1855 1856 -8.562395700000001E5
1856 1855 -8.597405700000001E5
1856 1856 1.7159801400000001E6
1856 1857 -8.562395700000001E5
1857 1856 -8.597405700000001E5
1857 1857 1.7159801400000001E6
1857 1858 -8.562395700000001E5
1858 1857 -8.597405700000001E5
1858 1858 1.7159801400000001E6
1858 1859 -8.562395700000001E5
1859 1858 -8.597405700000001E5
1859 1859 1.7159801400000001E6
1859 1860 -8.562395700000001E5
1860 1859 -8.597405700000001E5
1860 1860 1.7159801400000001E6
1860 1861 -8.562395700000001E5
1861 1860 -8.597405700000001E5
1861 1861 1.7159801400000001E6
1861 1862 -8.562395700000001E5
1862 1861 -8.597405700000001E5
1862 1862 1.7159801400000001E6
1862 1863 -8.562395700000001E5
1863 1862 -8.597405700000001E5
1863 1863 1.7159801400000001E6
1863 1864 -8.562395700000001E5
1864 1863 -8.597405700000001E5
1864 1864 1.7159801400000001E6
1864 1865 -8.562395700000001E5
1865 1864 -8.597405700000001E5
1865 1865 1.7159801400000001E6
1865 1866 -8.562395700000001E5
1866 1865 -8.597405700000001E5
1866 1866 1.7159801400000001E6
1866 1867 -8.562395700000001E5
1867 1866 -8.597405700000001E5
1867 1867 1.7159801400000001E6
1867 1868 -8.562395700000001E5
1868 1867 -8.597405700000001E5
1868 1868 1.7159801400000001E6
1868 1869 -8.562395700000001E5
1869 1868 -8.597405700000001E5
1869 1869 1.7159801400000001E6
1869 1870 -8.562395700000001E5
1870 1869 -8.597405700000001E5
1870 1870 1.7159801400000001E6
1870 1871 -8.562395700000001E5
1871 1870 -8.597405700000001E5
1871 1871 1.7159801400000001E6
1871 1872 -8.562395700000001E5
1872 1871 -8.597405700000001E5
1872 1872 1.7159801400000001E6
1872 1873 -8.562395700000001E5
1873 1872 -8.597405700000001E5
1873 1873 1.7159801400000001E6
1873 1874 -8.562395700000001E5
1874 1873 -8.597405700000001E5
1874 1874 1.7159801400000001E6
1874 1875 -8.562395700000001E5
1875 1874 -8.597405700000001E5
1875 1875 1.7159801400000001E6
1875 1876 -8.562395700000001E5
1876 1875 -8.597405700000001E5
1876 1876 1.7159801400000001E6
1876 1877 -8.562395700000001E5
1877 1876 -8.597405700000001E5
1877 1877 1.7159801400000001E6
1877 1878 -8.562395700000001E5
1878 1877 -8.597405700000001E5
1878 1878 1.7159801400000001E6
1878 1879 -8.562395700000001E5
1879 1878 -8.597405700000001E5
1879 1879 1.7159801400000001E6
1879 1880 -8.562395700000001E5
1880 1879 -8.597405700000001E5
1880 1880 1.7159801400000001E6
1880 1881 -8.562395700000001E5
1881 1880 -8.597405700000001E5
1881 1881 1.7159801400000001E6
1881 1882 -8.562395700000001E5
1882 1881 -8.597405700000001E5
1882 1882 1.7159801400000001E6
1882 1883 -8.562395700000001E5
1883 1882 -8.597405700000001E5
1883 1883 1.7159801400000001E6
1883 1884 -8.562395700000001E5
1884 1883 -8.597405700000001E5
1884 1884 1.7159801400000001E6
1884 1885 -8.562395700000001E5
1885 1884 -8.597405700000001E5
1885 1885 1.7159801400000001E6
1885 1886 -8.562395700000001E5
1886 1885 -8.597405700000001E5
1886 1886 1.7159801400000001E6
1886 1887 -8.562395700000001E5
1887 1886 -8.597405700000001E5
1887 1887 1.7159801400000001E6
1887 1888 -8.562395700000001E5
1888 1887 -8.597405700000001E5
1888 1888 1.7159801400000001E6
1888 1889 -8.562395700000001E5
1889 1888 -8.597405700000001E5
1889 1889 1.7159801400000001E6
1889 1890 -8.562395700000001E5
1890 1889 -8.597405700000001E5
1890 1890 1.7159801400000001E6
1890 1891 -8.562395700000001E5
1891 1890 -8.597405700000001E5
1891 1891 1.7159801400000001E6
1891 1892 -8.562395700000001E5
1892 1891 -8.597405700000001E5
1892 1892 1.7159801400000001E6
1892 1893 -8.562395700000001E5
1893 1892 -8.597405700000001E5
1893 1893 1.7159801400000001E6
1893 1894 -8.562395700000001E5
1894 1893 -8.597405700000001E5
1894 1894 1.7159801400000001E6
1894 1895 -8.562395700000001E5
1895 1894 -8.597405700000001E5
1895 1895 1.7159801400000001E6
1895 1896 -8.562395700000001E5
1896 1895 -8.597405700000001E5
1896 1896 1.7159801400000001E6
1896 1897 -8.562395700000001E5
1897 1896 -8.597405700000001E5
1897 1897 1.7159801400000001E6
1897 1898 -8.562395700000001E5
1898 1897 -8.597405700000001E5
1898 1898 1.7159801400000001E6
1898 1899 -8.562395700000001E5
1899 1898 -8.597405700000001E5
1899 1899 1.7159801400000001E6
1899 1900 -8.562395700000001E5
1900 1899 -8.597405700000001E5
1900 1900 1.7159801400000001E6
1900 1901 -8.562395700000001E5
1901 1900 -8.597405700000001E5
1901 1901 1.7159801400000001E6
1901 1902 -8.562395700000001E5
1902 1901 -8.597405700000001E5
1902 1902 1.7159801400000001E6
1902 1903 -8.562395700000001E5
1903 1902 -8.597405700000001E5
1903 1903 1.7159801400000001E6
1903 1904 -8.562395700000001E5
1904 1903 -8.597405700000001E5
1904 1904 1.7159801400000001E6
1904 1905 -8.562395700000001E5
1905 1904 -8.597405700000001E5
1905 1905 1.7159801400000001E6
1905 1906 -8.562395700000001E5
1906 1905 -8.597405700000001E5
1906 1906 1.7159801400000001E6
1906 1907 -8.562395700000001E5
1907 1906 -8.597405700000001E5
1907 1907 1.7159801400000001E6
1907 1908 -8.562395700000001E5
1908 1907 -8.597405700000001E5
1908 1908 1.7159801400000001E6
1908 1909 -8.562395700000001E5
1909 1908 -8.597405700000001E5
1909 1909 1.7159801400000001E6
1909 1910 -8.562395700000001E5
1910 1909 -8.597405700000001E5
1910 1910 1.7159801400000001E6
1910 1911 -8.562395700000001E5
1911 1910 -8.597405700000001E5
1911 1911 1.7159801400000001E6
1911 1912 -8.562395700000001E5
1912 1911 -8.597405700000001E5
1912 1912 1.7159801400000001E6
1912 1913 -8.562395700000001E5
1913 1912 -8.597405700000001E5
1913 1913 1.7159801400000001E6
1913 1914 -8.562395700000001E5
1914 1913 -8.597405700000001E5
1914 1914 1.7159801400000001E6
1914 1915 -8.562395700000001E5
1915 1914 -8.597405700000001E5
1915 1915 1.7159801400000001E6
1915 1916 -8.562395700000001E5
1916 1915 -8.597405700000001E5
1916 1916 1.7159801400000001E6
1916 1917 -8.562395700000001E5
1917 1916 -8.597405700000001E5
1917 1917 1.7159801400000001E6
1917 1918 -8.562395700000001E5
1918 1917 -8.597405700000001E5
1918 1918 1.7159801400000001E6
1918 1919 -8.562395700000001E5
1919 1918 -8.597405700000001E5
1919 1919 1.7159801400000001E6
1919 1920 -8.562395700000001E5
1920 1919 -8.597405700000001E5
1920 1920 1.7159801400000001E6
1920 1921 -8.562395700000001E5
1921 1920 -8.597405700000001E5
1921 1921 1.7159801400000001E6
1921 1922 -8.562395700000001E5
1922 1921 -8.597405700000001E5
1922 1922 1.7159801400000001E6
1922 1923 -8.562395700000001E5
1923 1922 -8.597405700000001E5
1923 1923 1.7159801400000001E6
1923 1924 -8.562395700000001E5
1924 1923 -8.597405700000001E5
1924 1924 1.7159801400000001E6
1924 1925 -8.562395700000001E5
1925 1924 -8.597405700000001E5
1925 1925 1.7159801400000001E6
1925 1926 -8.562395700000001E5
1926 1925 -8.597405700000001E5
1926 1926 1.7159801400000001E6
1926 1927 -8.562395700000001E5
1927 1926 -8.597405700000001E5
1927 1927 1.7159801400000001E6
1927 1928 -8.562395700000001E5
1928 1927 -8.597405700000001E5
1928 1928 1.7159801400000001E6
1928 1929 -8.562395700000001E5
1929 1928 -8.597405700000001E5
1929 1929 1.7159801400000001E6
1929 1930 -8.562395700000001E5
1930 1929 -8.597405700000001E5
1930 1930 1.7159801400000001E6
1930 1931 -8.562395700000001E5
1931 1930 -8.597405700000001E5
1931 1931 1.7159801400000001E6
1931 1932 -8.562395700000001E5
1932 1931 -8.597405700000001E5
1932 1932 1.7159801400000001E6
1932 1933 -8.562395700000001E5
1933 1932 -8.597405700000001E5
1933 1933 1.7159801400000001E6
1933 1934 -8.562395700000001E5
1934 1933 -8.597405700000001E5
1934 1934 1.7159801400000001E6
1934 1935 -8.562395700000001E5
1935 1934 -8.597405700000001E5
1935 1935 1.7159801400000001E6
1935 1936 -8.562395700000001E5
1936 1935 -8.597405700000001E5
1936 1936 1.7159801400000001E6
1936 1937 -8.562395700000001E5
1937 1936 -8.597405700000001E5
1937 1937 1.7159801400000001E6
1937 1938 -8.562395700000001E5
1938 1937 -8.597405700000001E5
1938 1938 1.7159801400000001E6
1938 1939 -8.562395700000001E5
1939 1938 -8.597405700000001E5
1939 1939 1.7159801400000001E6
1939 1940 -8.562395700000001E5
1940 1939 -8.597405700000001E5
1940 1940 1.7159801400000001E6
1940 1941 -8.562395700000001E5
1941 1940 -8.597405700000001E5
1941 1941 1.7159801400000001E6
1941 1942 -8.562395700000001E5
1942 1941 -8.597405700000001E5
1942 1942 1.7159801400000001E6
1942 1943 -8.562395700000001E5
1943 1942 -8.597405700000001E5
1943 1943 1.7159801400000001E6
1943 1944 -8.562395700000001E5
1944 1943 -8.597405700000001E5
1944 1944 1.7159801400000001E6
1944 1945 -8.562395700000001E5
1945 1944 -8.597405700000001E5
1945 1945 1.7159801400000001E6
1945 1946 -8.562395700000001E5
1946 1945 -8.597405700000001E5
1946 1946 1.7159801400000001E6
1946 1947 -8.562395700000001E5
1947 1946 -8.597405700000001E5
1947 1947 1.7159801400000001E6
1947 1948 -8.562395700000001E5
1948 1947 -8.597405700000001E5
1948 1948 1.7159801400000001E6
1948 1949 -8.562395700000001E5
1949 1948 -8.597405700000001E5
1949 1949 1.7159801400000001E6
1949 1950 -8.562395700000001E5
1950 1949 -8.597405700000001E5
1950 1950 1.7159801400000001E6
1950 1951 -8.562395700000001E5
1951 1950 -8.597405700000001E5
1951 1951 1.7159801400000001E6
1951 1952 -8.562395700000001E5
1952 1951 -8.597405700000001E5
1952 1952 1.7159801400000001E6
1952 1953 -8.562395700000001E5
1953 1952 -8.597405700000001E5
1953 1953 1.7159801400000001E6
1953 1954 -8.562395700000001E5
1954 1953 -8.597405700000001E5
1954 1954 1.7159801400000001E6
1954 1955 -8.562395700000001E5
1955 1954 -8.597405700000001E5
1955 1955 1.7159801400000001E6
1955 1956 -8.562395700000001E5
1956 1955 -8.597405700000001E5
1956 1956 1.7159801400000001E6
1956 1957 -8.562395700000001E5
1957 1956 -8.597405700000001E5
1957 1957 1.7159801400000001E6
1957 1958 -8.562395700000001E5
1958 1957 -8.597405700000001E5
1958 1958 1.7159801400000001E6
1958 1959 -8.562395700000001E5
1959 1958 -8.597405700000001E5
1959 1959 1.7159801400000001E6
1959 1960 -8.562395700000001E5
1960 1959 -8.597405700000001E5
1960 1960 1.7159801400000001E6
1960 1961 -8.562395700000001E5
1961 1960 -8.597405700000001E5
1961 1961 1.7159801400000001E6
1961 1962 -8.562395700000001E5
1962 1961 -8.597405700000001E5
1962 1962 1.7159801400000001E6
1962 1963 -8.562395700000001E5
1963 1962 -8.597405700000001E5
1963 1963 1.7159801400000001E6
1963 1964 -8.562395700000001E5
1964 1963 -8.597405700000001E5
1964 1964 1.7159801400000001E6
1964 1965 -8.562395700000001E5
1965 1964 -8.597405700000001E5
1965 1965 1.7159801400000001E6
1965 1966 -8.562395700000001E5
1966 1965 -8.597405700000001E5
1966 1966 1.7159801400000001E6
1966 1967 -8.562395700000001E5
1967 1966 -8.597405700000001E5
1967 1967 1.7159801400000001E6
1967 1968 -8.562395700000001E5
1968 1967 -8.597405700000001E5
1968 1968 1.7159801400000001E6
1968 1969 -8.562395700000001E5
1969 1968 -8.597405700000001E5
1969 1969 1.7159801400000001E6
1969 1970 -8.562395700000001E5
1970 1969 -8.597405700000001E5
1970 1970 1.7159801400000001E6
1970 1971 -8.562395700000001E5
1971 1970 -8.597405700000001E5
1971 1971 1.7159801400000001E6
1971 1972 -8.562395700000001E5
1972 1971 -8.597405700000001E5
1972 1972 1.7159801400000001E6
1972 1973 -8.562395700000001E5
1973 1972 -8.597405700000001E5
1973 1973 1.7159801400000001E6
1973 1974 -8.562395700000001E5
1974 1973 -8.597405700000001E5
1974 1974 1.7159801400000001E6
1974 1975 -8.562395700000001E5
1975 1974 -8.597405700000001E5
1975 1975 1.7159801400000001E6
1975 1976 -8.562395700000001E5
1976 1975 -8.597405700000001E5
1976 1976 1.7159801400000001E6
1976 1977 -8.562395700000001E5
1977 1976 -8.597405700000001E5
1977 1977 1.7159801400000001E6
1977 1978 -8.562395700000001E5
1978 1977 -8.597405700000001E5
1978 1978 1.7159801400000001E6
1978 1979 -8.562395700000001E5
1979 1978 -8.597405700000001E5
1979 1979 1.7159801400000001E6
1979 1980 -8.562395700000001E5
1980 1979 -8.597405700000001E5
1980 1980 1.7159801400000001E6
1980 1981 -8.562395700000001E5
1981 1980 -8.597405700000001E5
1981 1981 1.7159801400000001E6
1981 1982 -8.562395700000001E5
1982 1981 -8.597405700000001E5
1982 1982 1.7159801400000001E6
1982 1983 -8.562395700000001E5
1983 1982 -8.597405700000001E5
1983 1983 1.7159801400000001E6
1983 1984 -8.562395700000001E5
1984 1983 -8.597405700000001E5
1984 1984 1.7159801400000001E6
1984 1985 -8.562395700000001E5
1985 1984 -8.597405700000001E5
1985 1985 1.7159801400000001E6
1985 1986 -8.562395700000001E5
1986 1985 -8.597405700000001E5
1986 1986 1.7159801400000001E6
1986 1987 -8.562395700000001E5
1987 1986 -8.597405700000001E5
1987 1987 1.7159801400000001E6
1987 1988 -8.562395700000001E5
1988 1987 -8.597405700000001E5
1988 1988 1.7159801400000001E6
1988 1989 -8.562395700000001E5
1989 1988 -8.597405700000001E5
1989 1989 1.7159801400000001E6
1989 1990 -8.562395700000001E5
1990 1989 -8.597405700000001E5
1990 1990 1.7159801400000001E6
1990 1991 -8.562395700000001E5
1991 1990 -8.597405700000001E5
1991 1991 1.7159801400000001E6
1991 1992 -8.562395700000001E5
1992 1991 -8.597405700000001E5
1992 1992 1.7159801400000001E6
1992 1993 -8.562395700000001E5
1993 1992 -8.597405700000001E5
1993 1993 1.7159801400000001E6
1993 1994 -8.562395700000001E5
1994 1993 -8.597405700000001E5
1994 1994 1.7159801400000001E6
1994 1995 -8.562395700000001E5
1995 1994 -8.597405700000001E5
1995 1995 1.7159801400000001E6
1995 1996 -8.562395700000001E5
1996 1995 -8.597405700000001E5
1996 1996 1.7159801400000001E6
1996 1997 -8.562395700000001E5
1997 1996 -8.597405700000001E5
1997 1997 1.7159801400000001E6
1997 1998 -8.562395700000001E5
1998 1997 -8.597405700000001E5
1998 1998 1.7159801400000001E6
1998 1999 -8.562395700000001E5
1999 1998 -8.597405700000001E5
1999 1999 1.7159801400000001E6
1999 2000 -8.562395700000001E5
2000 1999 -8.597405700000001E5
2000 2000 1.7159801400000001E6
2000 2001 -8.562395700000001E5
2001 2000 -8.597405700000001E5
2001 2001 1.7159801400000001E6
2001 2002 -8.562395700000001E5
2002 2001 -8.597405700000001E5
2002 2002 1.7159801400000001E6
2002 2003 -8.562395700000001E5
2003 2002 -8.597405700000001E5
2003 2003 1.7159801400000001E6
2003 2004 -8.562395700000001E5
2004 2003 -8.597405700000001E5
2004 2004 1.7159801400000001E6
2004 2005 -8.562395700000001E5
2005 2004 -8.597405700000001E5
2005 2005 1.7159801400000001E6
2005 2006 -8.562395700000001E5
2006 2005 -8.597405700000001E5
2006 2006 1.7159801400000001E6
2006 2007 -8.562395700000001E5
2007 2006 -8.597405700000001E5
2007 2007 1.7159801400000001E6
2007 2008 -8.562395700000001E5
2008 2007 -8.597405700000001E5
2008 2008 1.7159801400000001E6
2008 2009 -8.562395700000001E5
2009 2008 -8.597405700000001E5
2009 2009 1.7159801400000001E6
2009 2010 -8.562395700000001E5
2010 2009 -8.597405700000001E5
2010 2010 1.7159801400000001E6
2010 2011 -8.562395700000001E5
2011 2010 -8.597405700000001E5
2011 2011 1.7159801400000001E6
2011 2012 -8.562395700000001E5
2012 2011 -8.597405700000001E5
2012 2012 1.7159801400000001E6
2012 2013 -8.562395700000001E5
2013 2012 -8.597405700000001E5
2013 2013 1.7159801400000001E6
2013 2014 -8.562395700000001E5
2014 2013 -8.597405700000001E5
2014 2014 1.7159801400000001E6
2014 2015 -8.562395700000001E5
2015 2014 -8.597405700000001E5
2015 2015 1.7159801400000001E6
2015 2016 -8.562395700000001E5
2016 2015 -8.597405700000001E5
2016 2016 1.7159801400000001E6
2016 2017 -8.562395700000001E5
2017 2016 -8.597405700000001E5
2017 2017 1.7159801400000001E6
2017 2018 -8.562395700000001E5
2018 2017 -8.597405700000001E5
2018 2018 1.7159801400000001E6
2018 2019 -8.562395700000001E5
2019 2018 -8.597405700000001E5
2019 2019 1.7159801400000001E6
2019 2020 -8.562395700000001E5
2020 2019 -8.597405700000001E5
2020 2020 1.7159801400000001E6
2020 2021 -8.562395700000001E5
2021 2020 -8.597405700000001E5
2021 2021 1.7159801400000001E6
2021 2022 -8.562395700000001E5
2022 2021 -8.597405700000001E5
2022 2022 1.7159801400000001E6
2022 2023 -8.562395700000001E5
2023 2022 -8.597405700000001E5
2023 2023 1.7159801400000001E6
2023 2024 -8.562395700000001E5
2024 2023 -8.597405700000001E5
2024 2024 1.7159801400000001E6
2024 2025 -8.562395700000001E5
2025 2024 -8.597405700000001E5
2025 2025 1.7159801400000001E6
2025 2026 -8.562395700000001E5
2026 2025 -8.597405700000001E5
2026 2026 1.7159801400000001E6
2026 2027 -8.562395700000001E5
2027 2026 -8.597405700000001E5
2027 2027 1.7159801400000001E6
2027 2028 -8.562395700000001E5
2028 2027 -8.597405700000001E5
2028 2028 1.7159801400000001E6
2028 2029 -8.562395700000001E5
2029 2028 -8.597405700000001E5
2029 2029 1.7159801400000001E6
2029 2030 -8.562395700000001E5
2030 2029 -8.597405700000001E5
2030 2030 1.7159801400000001E6
2030 2031 -8.562395700000001E5
2031 2030 -8.597405700000001E5
2031 2031 1.7159801400000001E6
2031 2032 -8.562395700000001E5
2032 2031 -8.597405700000001E5
2032 2032 1.7159801400000001E6
2032 2033 -8.562395700000001E5
2033 2032 -8.597405700000001E5
2033 2033 1.7159801400000001E6
2033 2034 -8.562395700000001E5
2034 2033 -8.597405700000001E5
2034 2034 1.7159801400000001E6
2034 2035 -8.562395700000001E5
2035 2034 -8.597405700000001E5
2035 2035 1.7159801400000001E6
2035 2036 -8.562395700000001E5
2036 2035 -8.597405700000001E5
2036 2036 1.7159801400000001E6
2036 2037 -8.562395700000001E5
2037 2036 -8.597405700000001E5
2037 2037 1.7159801400000001E6
2037 2038 -8.562395700000001E5
2038 2037 -8.597405700000001E5
2038 2038 1.7159801400000001E6
2038 2039 -8.562395700000001E5
2039 2038 -8.597405700000001E5
2039 2039 1.7159801400000001E6
2039 2040 -8.562395700000001E5
2040 2039 -8.597405700000001E5
2040 2040 1.7159801400000001E6
2040 2041 -8.562395700000001E5
2041 2040 -8.597405700000001E5
2041 2041 1.7159801400000001E6
2041 2042 -8.562395700000001E5
2042 2041 -8.597405700000001E5
2042 2042 1.7159801400000001E6
2042 2043 -8.562395700000001E5
2043 2042 -8.597405700000001E5
2043 2043 1.7159801400000001E6
2043 2044 -8.562395700000001E5
2044 2043 -8.597405700000001E5
2044 2044 1.7159801400000001E6
2044 2045 -8.562395700000001E5
2045 2044 -8.597405700000001E5
2045 2045 1.7159801400000001E6
2045 2046 -8.562395700000001E5
2046 2045 -8.597405700000001E5
2046 2046 1.7159801400000001E6
2046 2047 -8.562395700000001E5
2047 2046 -8.597405700000001E5
2047 2047 1.7159801400000001E6
2047 2048 -8.562395700000001E5
2048 2047 -8.597405700000001E5
2048 2048 1.7159801400000001E6
2048 2049 -8.562395700000001E5
2049 2048 -8.597405700000001E5
2049 2049 1.7159801400000001E6
2049 2050 -8.562395700000001E5
2050 2049 -8.597405700000001E5
2050 2050 1.7159801400000001E6
2050 2051 -8.562395700000001E5
2051 2050 -8.597405700000001E5
2051 2051 1.7159801400000001E6
2051 2052 -8.562395700000001E5
2052 2051 -8.597405700000001E5
2052 2052 1.7159801400000001E6
2052 2053 -8.562395700000001E5
2053 2052 -8.597405700000001E5
2053 2053 1.7159801400000001E6
2053 2054 -8.562395700000001E5
2054 2053 -8.597405700000001E5
2054 2054 1.7159801400000001E6
2054 2055 -8.562395700000001E5
2055 2054 -8.597405700000001E5
2055 2055 1.7159801400000001E6
2055 2056 -8.562395700000001E5
2056 2055 -8.597405700000001E5
2056 2056 1.7159801400000001E6
2056 2057 -8.562395700000001E5
2057 2056 -8.597405700000001E5
2057 2057 1.7159801400000001E6
2057 2058 -8.562395700000001E5
2058 2057 -8.597405700000001E5
2058 2058 1.7159801400000001E6
2058 2059 -8.562395700000001E5
2059 2058 -8.597405700000001E5
2059 2059 1.7159801400000001E6
2059 2060 -8.562395700000001E5
2060 2059 -8.597405700000001E5
2060 2060 1.7159801400000001E6
2060 2061 -8.562395700000001E5
2061 2060 -8.597405700000001E5
2061 2061 1.7159801400000001E6
2061 2062 -8.562395700000001E5
2062 2061 -8.597405700000001E5
2062 2062 1.7159801400000001E6
2062 2063 -8.562395700000001E5
2063 2062 -8.597405700000001E5
2063 2063 1.7159801400000001E6
2063 2064 -8.562395700000001E5
2064 2063 -8.597405700000001E5
2064 2064 1.7159801400000001E6
2064 2065 -8.562395700000001E5
2065 2064 -8.597405700000001E5
2065 2065 1.7159801400000001E6
2065 2066 -8.562395700000001E5
2066 2065 -8.597405700000001E5
2066 2066 1.7159801400000001E6
2066 2067 -8.562395700000001E5
2067 2066 -8.597405700000001E5
2067 2067 1.7159801400000001E6
2067 2068 -8.562395700000001E5
2068 2067 -8.597405700000001E5
2068 2068 1.7159801400000001E6
2068 2069 -8.562395700000001E5
2069 2068 -8.597405700000001E5
2069 2069 1.7159801400000001E6
2069 2070 -8.562395700000001E5
2070 2069 -8.597405700000001E5
2070 2070 1.7159801400000001E6
2070 2071 -8.562395700000001E5
2071 2070 -8.597405700000001E5
2071 2071 1.7159801400000001E6
2071 2072 -8.562395700000001E5
2072 2071 -8.597405700000001E5
2072 2072 1.7159801400000001E6
2072 2073 -8.562395700000001E5
2073 2072 -8.597405700000001E5
2073 2073 1.7159801400000001E6
2073 2074 -8.562395700000001E5
2074 2073 -8.597405700000001E5
2074 2074 1.7159801400000001E6
2074 2075 -8.562395700000001E5
2075 2074 -8.597405700000001E5
2075 2075 1.7159801400000001E6
2075 2076 -8.562395700000001E5
2076 2075 -8.597405700000001E5
2076 2076 1.7159801400000001E6
2076 2077 -8.562395700000001E5
2077 2076 -8.597405700000001E5
2077 2077 1.7159801400000001E6
2077 2078 -8.562395700000001E5
2078 2077 -8.597405700000001E5
2078 2078 1.7159801400000001E6
2078 2079 -8.562395700000001E5
2079 2078 -8.597405700000001E5
2079 2079 1.7159801400000001E6
2079 2080 -8.562395700000001E5
2080 2079 -8.597405700000001E5
2080 2080 1.7159801400000001E6
2080 2081 -8.562395700000001E5
2081 2080 -8.597405700000001E5
2081 2081 1.7159801400000001E6
2081 2082 -8.562395700000001E5
2082 2081 -8.597405700000001E5
2082 2082 1.7159801400000001E6
2082 2083 -8.562395700000001E5
2083 2082 -8.597405700000001E5
2083 2083 1.7159801400000001E6
2083 2084 -8.562395700000001E5
2084 2083 -8.597405700000001E5
2084 2084 1.7159801400000001E6
2084 2085 -8.562395700000001E5
2085 2084 -8.597405700000001E5
2085 2085 1.7159801400000001E6
2085 2086 -8.562395700000001E5
2086 2085 -8.597405700000001E5
2086 2086 1.7159801400000001E6
2086 2087 -8.562395700000001E5
2087 2086 -8.597405700000001E5
2087 2087 1.7159801400000001E6
2087 2088 -8.562395700000001E5
2088 2087 -8.597405700000001E5
2088 2088 1.7159801400000001E6
2088 2089 -8.562395700000001E5
2089 2088 -8.597405700000001E5
2089 2089 1.7159801400000001E6
2089 2090 -8.562395700000001E5
2090 2089 -8.597405700000001E5
2090 2090 1.7159801400000001E6
2090 2091 -8.562395700000001E5
2091 2090 -8.597405700000001E5
2091 2091 1.7159801400000001E6
2091 2092 -8.562395700000001E5
2092 2091 -8.597405700000001E5
2092 2092 1.7159801400000001E6
2092 2093 -8.562395700000001E5
2093 2092 -8.597405700000001E5
2093 2093 1.7159801400000001E6
2093 2094 -8.562395700000001E5
2094 2093 -8.597405700000001E5
2094 2094 1.7159801400000001E6
2094 2095 -8.562395700000001E5
2095 2094 -8.597405700000001E5
2095 2095 1.7159801400000001E6
2095 2096 -8.562395700000001E5
2096 2095 -8.597405700000001E5
2096 2096 1.7159801400000001E6
2096 2097 -8.562395700000001E5
2097 2096 -8.597405700000001E5
2097 2097 1.7159801400000001E6
2097 2098 -8.562395700000001E5
2098 2097 -8.597405700000001E5
2098 2098 1.7159801400000001E6
2098 2099 -8.562395700000001E5
2099 2098 -8.597405700000001E5
2099 2099 1.7159801400000001E6
2099 2100 -8.562395700000001E5
2100 2099 -8.597405700000001E5
2100 2100 1.7159801400000001E6
2100 2101 -8.562395700000001E5
2101 2100 -8.597405700000001E5
2101 2101 1.7159801400000001E6
2101 2102 -8.562395700000001E5
2102 2101 -8.597405700000001E5
2102 2102 1.7159801400000001E6
2102 2103 -8.562395700000001E5
2103 2102 -8.597405700000001E5
2103 2103 1.7159801400000001E6
2103 2104 -8.562395700000001E5
2104 2103 -8.597405700000001E5
2104 2104 1.7159801400000001E6
2104 2105 -8.562395700000001E5
2105 2104 -8.597405700000001E5
2105 2105 1.7159801400000001E6
2105 2106 -8.562395700000001E5
2106 2105 -8.597405700000001E5
2106 2106 1.7159801400000001E6
2106 2107 -8.562395700000001E5
2107 2106 -8.597405700000001E5
2107 2107 1.7159801400000001E6
2107 2108 -8.562395700000001E5
2108 2107 -8.597405700000001E5
2108 2108 1.7159801400000001E6
2108 2109 -8.562395700000001E5
2109 2108 -8.597405700000001E5
2109 2109 1.7159801400000001E6
2109 2110 -8.562395700000001E5
2110 2109 -8.597405700000001E5
2110 2110 1.7159801400000001E6
2110 2111 -8.562395700000001E5
2111 2110 -8.597405700000001E5
2111 2111 1.7159801400000001E6
2111 2112 -8.562395700000001E5
2112 2111 -8.597405700000001E5
2112 2112 1.7159801400000001E6
2112 2113 -8.562395700000001E5
2113 2112 -8.597405700000001E5
2113 2113 1.7159801400000001E6
2113 2114 -8.562395700000001E5
2114 2113 -8.597405700000001E5
2114 2114 1.7159801400000001E6
2114 2115 -8.562395700000001E5
2115 2114 -8.597405700000001E5
2115 2115 1.7159801400000001E6
2115 2116 -8.562395700000001E5
2116 2115 -8.597405700000001E5
2116 2116 1.7159801400000001E6
2116 2117 -8.562395700000001E5
2117 2116 -8.597405700000001E5
2117 2117 1.7159801400000001E6
2117 2118 -8.562395700000001E5
2118 2117 -8.597405700000001E5
2118 2118 1.7159801400000001E6
2118 2119 -8.562395700000001E5
2119 2118 -8.597405700000001E5
2119 2119 1.7159801400000001E6
2119 2120 -8.562395700000001E5
2120 2119 -8.597405700000001E5
2120 2120 1.7159801400000001E6
2120 2121 -8.562395700000001E5
2121 2120 -8.597405700000001E5
2121 2121 1.7159801400000001E6
2121 2122 -8.562395700000001E5
2122 2121 -8.597405700000001E5
2122 2122 1.7159801400000001E6
2122 2123 -8.562395700000001E5
2123 2122 -8.597405700000001E5
2123 2123 1.7159801400000001E6
2123 2124 -8.562395700000001E5
2124 2123 -8.597405700000001E5
2124 2124 1.7159801400000001E6
2124 2125 -8.562395700000001E5
2125 2124 -8.597405700000001E5
2125 2125 1.7159801400000001E6
2125 2126 -8.562395700000001E5
2126 2125 -8.597405700000001E5
2126 2126 1.7159801400000001E6
2126 2127 -8.562395700000001E5
2127 2126 -8.597405700000001E5
2127 2127 1.7159801400000001E6
2127 2128 -8.562395700000001E5
2128 2127 -8.597405700000001E5
2128 2128 1.7159801400000001E6
2128 2129 -8.562395700000001E5
2129 2128 -8.597405700000001E5
2129 2129 1.7159801400000001E6
2129 2130 -8.562395700000001E5
2130 2129 -8.597405700000001E5
2130 2130 1.7159801400000001E6
2130 2131 -8.562395700000001E5
2131 2130 -8.597405700000001E5
2131 2131 1.7159801400000001E6
2131 2132 -8.562395700000001E5
2132 2131 -8.597405700000001E5
2132 2132 1.7159801400000001E6
2132 2133 -8.562395700000001E5
2133 2132 -8.597405700000001E5
2133 2133 1.7159801400000001E6
2133 2134 -8.562395700000001E5
2134 2133 -8.597405700000001E5
2134 2134 1.7159801400000001E6
2134 2135 -8.562395700000001E5
2135 2134 -8.597405700000001E5
2135 2135 1.7159801400000001E6
2135 2136 -8.562395700000001E5
2136 2135 -8.597405700000001E5
2136 2136 1.7159801400000001E6
2136 2137 -8.562395700000001E5
2137 2136 -8.597405700000001E5
2137 2137 1.7159801400000001E6
2137 2138 -8.562395700000001E5
2138 2137 -8.597405700000001E5
2138 2138 1.7159801400000001E6
2138 2139 -8.562395700000001E5
2139 2138 -8.597405700000001E5
2139 2139 1.7159801400000001E6
2139 2140 -8.562395700000001E5
2140 2139 -8.597405700000001E5
2140 2140 1.7159801400000001E6
2140 2141 -8.562395700000001E5
2141 2140 -8.597405700000001E5
2141 2141 1.7159801400000001E6
2141 2142 -8.562395700000001E5
2142 2141 -8.597405700000001E5
2142 2142 1.7159801400000001E6
2142 2143 -8.562395700000001E5
2143 2142 -8.597405700000001E5
2143 2143 1.7159801400000001E6
2143 2144 -8.562395700000001E5
2144 2143 -8.597405700000001E5
2144 2144 1.7159801400000001E6
2144 2145 -8.562395700000001E5
2145 2144 -8.597405700000001E5
2145 2145 1.7159801400000001E6
2145 2146 -8.562395700000001E5
2146 2145 -8.597405700000001E5
2146 2146 1.7159801400000001E6
2146 2147 -8.562395700000001E5
2147 2146 -8.597405700000001E5
2147 2147 1.7159801400000001E6
2147 2148 -8.562395700000001E5
2148 2147 -8.597405700000001E5
2148 2148 1.7159801400000001E6
2148 2149 -8.562395700000001E5
2149 2148 -8.597405700000001E5
2149 2149 1.7159801400000001E6
2149 2150 -8.562395700000001E5
2150 2149 -8.597405700000001E5
2150 2150 1.7159801400000001E6
2150 2151 -8.562395700000001E5
2151 2150 -8.597405700000001E5
2151 2151 1.7159801400000001E6
2151 2152 -8.562395700000001E5
2152 2151 -8.597405700000001E5
2152 2152 1.7159801400000001E6
2152 2153 -8.562395700000001E5
2153 2152 -8.597405700000001E5
2153 2153 1.7159801400000001E6
2153 2154 -8.562395700000001E5
2154 2153 -8.597405700000001E5
2154 2154 1.7159801400000001E6
2154 2155 -8.562395700000001E5
2155 2154 -8.597405700000001E5
2155 2155 1.7159801400000001E6
2155 2156 -8.562395700000001E5
2156 2155 -8.597405700000001E5
2156 2156 1.7159801400000001E6
2156 2157 -8.562395700000001E5
2157 2156 -8.597405700000001E5
2157 2157 1.7159801400000001E6
2157 2158 -8.562395700000001E5
2158 2157 -8.597405700000001E5
2158 2158 1.7159801400000001E6
2158 2159 -8.562395700000001E5
2159 2158 -8.597405700000001E5
2159 2159 1.7159801400000001E6
2159 2160 -8.562395700000001E5
2160 2159 -8.597405700000001E5
2160 2160 1.7159801400000001E6
2160 2161 -8.562395700000001E5
2161 2160 -8.597405700000001E5
2161 2161 1.7159801400000001E6
2161 2162 -8.562395700000001E5
2162 2161 -8.597405700000001E5
2162 2162 1.7159801400000001E6
2162 2163 -8.562395700000001E5
2163 2162 -8.597405700000001E5
2163 2163 1.7159801400000001E6
2163 2164 -8.562395700000001E5
2164 2163 -8.597405700000001E5
2164 2164 1.7159801400000001E6
2164 2165 -8.562395700000001E5
2165 2164 -8.597405700000001E5
2165 2165 1.7159801400000001E6
2165 2166 -8.562395700000001E5
2166 2165 -8.597405700000001E5
2166 2166 1.7159801400000001E6
2166 2167 -8.562395700000001E5
2167 2166 -8.597405700000001E5
2167 2167 1.7159801400000001E6
2167 2168 -8.562395700000001E5
2168 2167 -8.597405700000001E5
2168 2168 1.7159801400000001E6
2168 2169 -8.562395700000001E5
2169 2168 -8.597405700000001E5
2169 2169 1.7159801400000001E6
2169 2170 -8.562395700000001E5
2170 2169 -8.597405700000001E5
2170 2170 1.7159801400000001E6
2170 2171 -8.562395700000001E5
2171 2170 -8.597405700000001E5
2171 2171 1.7159801400000001E6
2171 2172 -8.562395700000001E5
2172 2171 -8.597405700000001E5
2172 2172 1.7159801400000001E6
2172 2173 -8.562395700000001E5
2173 2172 -8.597405700000001E5
2173 2173 1.7159801400000001E6
2173 2174 -8.562395700000001E5
2174 2173 -8.597405700000001E5
2174 2174 1.7159801400000001E6
2174 2175 -8.562395700000001E5
2175 2174 -8.597405700000001E5
2175 2175 1.7159801400000001E6
2175 2176 -8.562395700000001E5
2176 2175 -8.597405700000001E5
2176 2176 1.7159801400000001E6
2176 2177 -8.562395700000001E5
2177 2176 -8.597405700000001E5
2177 2177 1.7159801400000001E6
2177 2178 -8.562395700000001E5
2178 2177 -8.597405700000001E5
2178 2178 1.7159801400000001E6
2178 2179 -8.562395700000001E5
2179 2178 -8.597405700000001E5
2179 2179 1.7159801400000001E6
2179 2180 -8.562395700000001E5
2180 2179 -8.597405700000001E5
2180 2180 1.7159801400000001E6
2180 2181 -8.562395700000001E5
2181 2180 -8.597405700000001E5
2181 2181 1.7159801400000001E6
2181 2182 -8.562395700000001E5
2182 2181 -8.597405700000001E5
2182 2182 1.7159801400000001E6
2182 2183 -8.562395700000001E5
2183 2182 -8.597405700000001E5
2183 2183 1.7159801400000001E6
2183 2184 -8.562395700000001E5
2184 2183 -8.597405700000001E5
2184 2184 1.7159801400000001E6
2184 2185 -8.562395700000001E5
2185 2184 -8.597405700000001E5
2185 2185 1.7159801400000001E6
2185 2186 -8.562395700000001E5
2186 2185 -8.597405700000001E5
2186 2186 1.7159801400000001E6
2186 2187 -8.562395700000001E5
2187 2186 -8.597405700000001E5
2187 2187 1.7159801400000001E6
2187 2188 -8.562395700000001E5
2188 2187 -8.597405700000001E5
2188 2188 1.7159801400000001E6
2188 2189 -8.562395700000001E5
2189 2188 -8.597405700000001E5
2189 2189 1.7159801400000001E6
2189 2190 -8.562395700000001E5
2190 2189 -8.597405700000001E5
2190 2190 1.7159801400000001E6
2190 2191 -8.562395700000001E5
2191 2190 -8.597405700000001E5
2191 2191 1.7159801400000001E6
2191 2192 -8.562395700000001E5
2192 2191 -8.597405700000001E5
2192 2192 1.7159801400000001E6
2192 2193 -8.562395700000001E5
2193 2192 -8.597405700000001E5
2193 2193 1.7159801400000001E6
2193 2194 -8.562395700000001E5
2194 2193 -8.597405700000001E5
2194 2194 1.7159801400000001E6
2194 2195 -8.562395700000001E5
2195 2194 -8.597405700000001E5
2195 2195 1.7159801400000001E6
2195 2196 -8.562395700000001E5
2196 2195 -8.597405700000001E5
2196 2196 1.7159801400000001E6
2196 2197 -8.562395700000001E5
2197 2196 -8.597405700000001E5
2197 2197 1.7159801400000001E6
2197 2198 -8.562395700000001E5
2198 2197 -8.597405700000001E5
2198 2198 1.7159801400000001E6
2198 2199 -8.562395700000001E5
2199 2198 -8.597405700000001E5
2199 2199 1.7159801400000001E6
2199 2200 -8.562395700000001E5
2200 2199 -8.597405700000001E5
2200 2200 1.7159801400000001E6
2200 2201 -8.562395700000001E5
2201 2200 -8.597405700000001E5
2201 2201 1.7159801400000001E6
2201 2202 -8.562395700000001E5
2202 2201 -8.597405700000001E5
2202 2202 1.7159801400000001E6
2202 2203 -8.562395700000001E5
2203 2202 -8.597405700000001E5
2203 2203 1.7159801400000001E6
2203 2204 -8.562395700000001E5
2204 2203 -8.597405700000001E5
2204 2204 1.7159801400000001E6
2204 2205 -8.562395700000001E5
2205 2204 -8.597405700000001E5
2205 2205 1.7159801400000001E6
2205 2206 -8.562395700000001E5
2206 2205 -8.597405700000001E5
2206 2206 1.7159801400000001E6
2206 2207 -8.562395700000001E5
2207 2206 -8.597405700000001E5
2207 2207 1.7159801400000001E6
2207 2208 -8.562395700000001E5
2208 2207 -8.597405700000001E5
2208 2208 1.7159801400000001E6
2208 2209 -8.562395700000001E5
2209 2208 -8.597405700000001E5
2209 2209 1.7159801400000001E6
2209 2210 -8.562395700000001E5
2210 2209 -8.597405700000001E5
2210 2210 1.7159801400000001E6
2210 2211 -8.562395700000001E5
2211 2210 -8.597405700000001E5
2211 2211 1.7159801400000001E6
2211 2212 -8.562395700000001E5
2212 2211 -8.597405700000001E5
2212 2212 1.7159801400000001E6
2212 2213 -8.562395700000001E5
2213 2212 -8.597405700000001E5
2213 2213 1.7159801400000001E6
2213 2214 -8.562395700000001E5
2214 2213 -8.597405700000001E5
2214 2214 1.7159801400000001E6
2214 2215 -8.562395700000001E5
2215 2214 -8.597405700000001E5
2215 2215 1.7159801400000001E6
2215 2216 -8.562395700000001E5
2216 2215 -8.597405700000001E5
2216 2216 1.7159801400000001E6
2216 2217 -8.562395700000001E5
2217 2216 -8.597405700000001E5
2217 2217 1.7159801400000001E6
2217 2218 -8.562395700000001E5
2218 2217 -8.597405700000001E5
2218 2218 1.7159801400000001E6
2218 2219 -8.562395700000001E5
2219 2218 -8.597405700000001E5
2219 2219 1.7159801400000001E6
2219 2220 -8.562395700000001E5
2220 2219 -8.597405700000001E5
2220 2220 1.7159801400000001E6
2220 2221 -8.562395700000001E5
2221 2220 -8.597405700000001E5
2221 2221 1.7159801400000001E6
2221 2222 -8.562395700000001E5
2222 2221 -8.597405700000001E5
2222 2222 1.7159801400000001E6
2222 2223 -8.562395700000001E5
2223 2222 -8.597405700000001E5
2223 2223 1.7159801400000001E6
2223 2224 -8.562395700000001E5
2224 2223 -8.597405700000001E5
2224 2224 1.7159801400000001E6
2224 2225 -8.562395700000001E5
2225 2224 -8.597405700000001E5
2225 2225 1.7159801400000001E6
2225 2226 -8.562395700000001E5
2226 2225 -8.597405700000001E5
2226 2226 1.7159801400000001E6
2226 2227 -8.562395700000001E5
2227 2226 -8.597405700000001E5
2227 2227 1.7159801400000001E6
2227 2228 -8.562395700000001E5
2228 2227 -8.597405700000001E5
2228 2228 1.7159801400000001E6
2228 2229 -8.562395700000001E5
2229 2228 -8.597405700000001E5
2229 2229 1.7159801400000001E6
2229 2230 -8.562395700000001E5
2230 2229 -8.597405700000001E5
2230 2230 1.7159801400000001E6
2230 2231 -8.562395700000001E5
2231 2230 -8.597405700000001E5
2231 2231 1.7159801400000001E6
2231 2232 -8.562395700000001E5
2232 2231 -8.597405700000001E5
2232 2232 1.7159801400000001E6
2232 2233 -8.562395700000001E5
2233 2232 -8.597405700000001E5
2233 2233 1.7159801400000001E6
2233 2234 -8.562395700000001E5
2234 2233 -8.597405700000001E5
2234 2234 1.7159801400000001E6
2234 2235 -8.562395700000001E5
2235 2234 -8.597405700000001E5
2235 2235 1.7159801400000001E6
2235 2236 -8.562395700000001E5
2236 2235 -8.597405700000001E5
2236 2236 1.7159801400000001E6
2236 2237 -8.562395700000001E5
2237 2236 -8.597405700000001E5
2237 2237 1.7159801400000001E6
2237 2238 -8.562395700000001E5
2238 2237 -8.597405700000001E5
2238 2238 1.7159801400000001E6
2238 2239 -8.562395700000001E5
2239 2238 -8.597405700000001E5
2239 2239 1.7159801400000001E6
2239 2240 -8.562395700000001E5
2240 2239 -8.597405700000001E5
2240 2240 1.7159801400000001E6
2240 2241 -8.562395700000001E5
2241 2240 -8.597405700000001E5
2241 2241 1.7159801400000001E6
2241 2242 -8.562395700000001E5
2242 2241 -8.597405700000001E5
2242 2242 1.7159801400000001E6
2242 2243 -8.562395700000001E5
2243 2242 -8.597405700000001E5
2243 2243 1.7159801400000001E6
2243 2244 -8.562395700000001E5
2244 2243 -8.597405700000001E5
2244 2244 1.7159801400000001E6
2244 2245 -8.562395700000001E5
2245 2244 -8.597405700000001E5
2245 2245 1.7159801400000001E6
2245 2246 -8.562395700000001E5
2246 2245 -8.597405700000001E5
2246 2246 1.7159801400000001E6
2246 2247 -8.562395700000001E5
2247 2246 -8.597405700000001E5
2247 2247 1.7159801400000001E6
2247 2248 -8.562395700000001E5
2248 2247 -8.597405700000001E5
2248 2248 1.7159801400000001E6
2248 2249 -8.562395700000001E5
2249 2248 -8.597405700000001E5
2249 2249 1.7159801400000001E6
2249 2250 -8.562395700000001E5
2250 2249 -8.597405700000001E5
2250 2250 1.7159801400000001E6
2250 2251 -8.562395700000001E5
2251 2250 -8.597405700000001E5
2251 2251 1.7159801400000001E6
2251 2252 -8.562395700000001E5
2252 2251 -8.597405700000001E5
2252 2252 1.7159801400000001E6
2252 2253 -8.562395700000001E5
2253 2252 -8.597405700000001E5
2253 2253 1.7159801400000001E6
2253 2254 -8.562395700000001E5
2254 2253 -8.597405700000001E5
2254 2254 1.7159801400000001E6
2254 2255 -8.562395700000001E5
2255 2254 -8.597405700000001E5
2255 2255 1.7159801400000001E6
2255 2256 -8.562395700000001E5
2256 2255 -8.597405700000001E5
2256 2256 1.7159801400000001E6
2256 2257 -8.562395700000001E5
2257 2256 -8.597405700000001E5
2257 2257 1.7159801400000001E6
2257 2258 -8.562395700000001E5
2258 2257 -8.597405700000001E5
2258 2258 1.7159801400000001E6
2258 2259 -8.562395700000001E5
2259 2258 -8.597405700000001E5
2259 2259 1.7159801400000001E6
2259 2260 -8.562395700000001E5
2260 2259 -8.597405700000001E5
2260 2260 1.7159801400000001E6
2260 2261 -8.562395700000001E5
2261 2260 -8.597405700000001E5
2261 2261 1.7159801400000001E6
2261 2262 -8.562395700000001E5
2262 2261 -8.597405700000001E5
2262 2262 1.7159801400000001E6
2262 2263 -8.562395700000001E5
2263 2262 -8.597405700000001E5
2263 2263 1.7159801400000001E6
2263 2264 -8.562395700000001E5
2264 2263 -8.597405700000001E5
2264 2264 1.7159801400000001E6
2264 2265 -8.562395700000001E5
2265 2264 -8.597405700000001E5
2265 2265 1.7159801400000001E6
2265 2266 -8.562395700000001E5
2266 2265 -8.597405700000001E5
2266 2266 1.7159801400000001E6
2266 2267 -8.562395700000001E5
2267 2266 -8.597405700000001E5
2267 2267 1.7159801400000001E6
2267 2268 -8.562395700000001E5
2268 2267 -8.597405700000001E5
2268 2268 1.7159801400000001E6
2268 2269 -8.562395700000001E5
2269 2268 -8.597405700000001E5
2269 2269 1.7159801400000001E6
2269 2270 -8.562395700000001E5
2270 2269 -8.597405700000001E5
2270 2270 1.7159801400000001E6
2270 2271 -8.562395700000001E5
2271 2270 -8.597405700000001E5
2271 2271 1.7159801400000001E6
2271 2272 -8.562395700000001E5
2272 2271 -8.597405700000001E5
2272 2272 1.7159801400000001E6
2272 2273 -8.562395700000001E5
2273 2272 -8.597405700000001E5
2273 2273 1.7159801400000001E6
2273 2274 -8.562395700000001E5
2274 2273 -8.597405700000001E5
2274 2274 1.7159801400000001E6
2274 2275 -8.562395700000001E5
2275 2274 -8.597405700000001E5
2275 2275 1.7159801400000001E6
2275 2276 -8.562395700000001E5
2276 2275 -8.597405700000001E5
2276 2276 1.7159801400000001E6
2276 2277 -8.562395700000001E5
2277 2276 -8.597405700000001E5
2277 2277 1.7159801400000001E6
2277 2278 -8.562395700000001E5
2278 2277 -8.597405700000001E5
2278 2278 1.7159801400000001E6
2278 2279 -8.562395700000001E5
2279 2278 -8.597405700000001E5
2279 2279 1.7159801400000001E6
2279 2280 -8.562395700000001E5
2280 2279 -8.597405700000001E5
2280 2280 1.7159801400000001E6
2280 2281 -8.562395700000001E5
2281 2280 -8.597405700000001E5
2281 2281 1.7159801400000001E6
2281 2282 -8.562395700000001E5
2282 2281 -8.597405700000001E5
2282 2282 1.7159801400000001E6
2282 2283 -8.562395700000001E5
2283 2282 -8.597405700000001E5
2283 2283 1.7159801400000001E6
2283 2284 -8.562395700000001E5
2284 2283 -8.597405700000001E5
2284 2284 1.7159801400000001E6
2284 2285 -8.562395700000001E5
2285 2284 -8.597405700000001E5
2285 2285 1.7159801400000001E6
2285 2286 -8.562395700000001E5
2286 2285 -8.597405700000001E5
2286 2286 1.7159801400000001E6
2286 2287 -8.562395700000001E5
2287 2286 -8.597405700000001E5
2287 2287 1.7159801400000001E6
2287 2288 -8.562395700000001E5
2288 2287 -8.597405700000001E5
2288 2288 1.7159801400000001E6
2288 2289 -8.562395700000001E5
2289 2288 -8.597405700000001E5
2289 2289 1.7159801400000001E6
2289 2290 -8.562395700000001E5
2290 2289 -8.597405700000001E5
2290 2290 1.7159801400000001E6
2290 2291 -8.562395700000001E5
2291 2290 -8.597405700000001E5
2291 2291 1.7159801400000001E6
2291 2292 -8.562395700000001E5
2292 2291 -8.597405700000001E5
2292 2292 1.7159801400000001E6
2292 2293 -8.562395700000001E5
2293 2292 -8.597405700000001E5
2293 2293 1.7159801400000001E6
2293 2294 -8.562395700000001E5
2294 2293 -8.597405700000001E5
2294 2294 1.7159801400000001E6
2294 2295 -8.562395700000001E5
2295 2294 -8.597405700000001E5
2295 2295 1.7159801400000001E6
2295 2296 -8.562395700000001E5
2296 2295 -8.597405700000001E5
2296 2296 1.7159801400000001E6
2296 2297 -8.562395700000001E5
2297 2296 -8.597405700000001E5
2297 2297 1.7159801400000001E6
2297 2298 -8.562395700000001E5
2298 2297 -8.597405700000001E5
2298 2298 1.7159801400000001E6
2298 2299 -8.562395700000001E5
2299 2298 -8.597405700000001E5
2299 2299 1.7159801400000001E6
2299 2300 -8.562395700000001E5
2300 2299 -8.597405700000001E5
2300 2300 1.7159801400000001E6
2300 2301 -8.562395700000001E5
2301 2300 -8.597405700000001E5
2301 2301 1.7159801400000001E6
2301 2302 -8.562395700000001E5
2302 2301 -8.597405700000001E5
2302 2302 1.7159801400000001E6
2302 2303 -8.562395700000001E5
2303 2302 -8.597405700000001E5
2303 2303 1.7159801400000001E6
2303 2304 -8.562395700000001E5
2304 2303 -8.597405700000001E5
2304 2304 1.7159801400000001E6
2304 2305 -8.562395700000001E5
2305 2304 -8.597405700000001E5
2305 2305 1.7159801400000001E6
2305 2306 -8.562395700000001E5
2306 2305 -8.597405700000001E5
2306 2306 1.7159801400000001E6
2306 2307 -8.562395700000001E5
2307 2306 -8.597405700000001E5
2307 2307 1.7159801400000001E6
2307 2308 -8.562395700000001E5
2308 2307 -8.597405700000001E5
2308 2308 1.7159801400000001E6
2308 2309 -8.562395700000001E5
2309 2308 -8.597405700000001E5
2309 2309 1.7159801400000001E6
2309 2310 -8.562395700000001E5
2310 2309 -8.597405700000001E5
2310 2310 1.7159801400000001E6
2310 2311 -8.562395700000001E5
2311 2310 -8.597405700000001E5
2311 2311 1.7159801400000001E6
2311 2312 -8.562395700000001E5
2312 2311 -8.597405700000001E5
2312 2312 1.7159801400000001E6
2312 2313 -8.562395700000001E5
2313 2312 -8.597405700000001E5
2313 2313 1.7159801400000001E6
2313 2314 -8.562395700000001E5
2314 2313 -8.597405700000001E5
2314 2314 1.7159801400000001E6
2314 2315 -8.562395700000001E5
2315 2314 -8.597405700000001E5
2315 2315 1.7159801400000001E6
2315 2316 -8.562395700000001E5
2316 2315 -8.597405700000001E5
2316 2316 1.7159801400000001E6
2316 2317 -8.562395700000001E5
2317 2316 -8.597405700000001E5
2317 2317 1.7159801400000001E6
2317 2318 -8.562395700000001E5
2318 2317 -8.597405700000001E5
2318 2318 1.7159801400000001E6
2318 2319 -8.562395700000001E5
2319 2318 -8.597405700000001E5
2319 2319 1.7159801400000001E6
2319 2320 -8.562395700000001E5
2320 2319 -8.597405700000001E5
2320 2320 1.7159801400000001E6
2320 2321 -8.562395700000001E5
2321 2320 -8.597405700000001E5
2321 2321 1.7159801400000001E6
2321 2322 -8.562395700000001E5
2322 2321 -8.597405700000001E5
2322 2322 1.7159801400000001E6
2322 2323 -8.562395700000001E5
2323 2322 -8.597405700000001E5
2323 2323 1.7159801400000001E6
2323 2324 -8.562395700000001E5
2324 2323 -8.597405700000001E5
2324 2324 1.7159801400000001E6
2324 2325 -8.562395700000001E5
2325 2324 -8.597405700000001E5
2325 2325 1.7159801400000001E6
2325 2326 -8.562395700000001E5
2326 2325 -8.597405700000001E5
2326 2326 1.7159801400000001E6
2326 2327 -8.562395700000001E5
2327 2326 -8.597405700000001E5
2327 2327 1.7159801400000001E6
2327 2328 -8.562395700000001E5
2328 2327 -8.597405700000001E5
2328 2328 1.7159801400000001E6
2328 2329 -8.562395700000001E5
2329 2328 -8.597405700000001E5
2329 2329 1.7159801400000001E6
2329 2330 -8.562395700000001E5
2330 2329 -8.597405700000001E5
2330 2330 1.7159801400000001E6
2330 2331 -8.562395700000001E5
2331 2330 -8.597405700000001E5
2331 2331 1.7159801400000001E6
2331 2332 -8.562395700000001E5
2332 2331 -8.597405700000001E5
2332 2332 1.7159801400000001E6
2332 2333 -8.562395700000001E5
2333 2332 -8.597405700000001E5
2333 2333 1.7159801400000001E6
2333 2334 -8.562395700000001E5
2334 2333 -8.597405700000001E5
2334 2334 1.7159801400000001E6
2334 2335 -8.562395700000001E5
2335 2334 -8.597405700000001E5
2335 2335 1.7159801400000001E6
2335 2336 -8.562395700000001E5
2336 2335 -8.597405700000001E5
2336 2336 1.7159801400000001E6
2336 2337 -8.562395700000001E5
2337 2336 -8.597405700000001E5
2337 2337 1.7159801400000001E6
2337 2338 -8.562395700000001E5
2338 2337 -8.597405700000001E5
2338 2338 1.7159801400000001E6
2338 2339 -8.562395700000001E5
2339 2338 -8.597405700000001E5
2339 2339 1.7159801400000001E6
2339 2340 -8.562395700000001E5
2340 2339 -8.597405700000001E5
2340 2340 1.7159801400000001E6
2340 2341 -8.562395700000001E5
2341 2340 -8.597405700000001E5
2341 2341 1.7159801400000001E6
2341 2342 -8.562395700000001E5
2342 2341 -8.597405700000001E5
2342 2342 1.7159801400000001E6
2342 2343 -8.562395700000001E5
2343 2342 -8.597405700000001E5
2343 2343 1.7159801400000001E6
2343 2344 -8.562395700000001E5
2344 2343 -8.597405700000001E5
2344 2344 1.7159801400000001E6
2344 2345 -8.562395700000001E5
2345 2344 -8.597405700000001E5
2345 2345 1.7159801400000001E6
2345 2346 -8.562395700000001E5
2346 2345 -8.597405700000001E5
2346 2346 1.7159801400000001E6
2346 2347 -8.562395700000001E5
2347 2346 -8.597405700000001E5
2347 2347 1.7159801400000001E6
2347 2348 -8.562395700000001E5
2348 2347 -8.597405700000001E5
2348 2348 1.7159801400000001E6
2348 2349 -8.562395700000001E5
2349 2348 -8.597405700000001E5
2349 2349 1.7159801400000001E6
2349 2350 -8.562395700000001E5
2350 2349 -8.597405700000001E5
2350 2350 1.7159801400000001E6
2350 2351 -8.562395700000001E5
2351 2350 -8.597405700000001E5
2351 2351 1.7159801400000001E6
2351 2352 -8.562395700000001E5
2352 2351 -8.597405700000001E5
2352 2352 1.7159801400000001E6
2352 2353 -8.562395700000001E5
2353 2352 -8.597405700000001E5
2353 2353 1.7159801400000001E6
2353 2354 -8.562395700000001E5
2354 2353 -8.597405700000001E5
2354 2354 1.7159801400000001E6
2354 2355 -8.562395700000001E5
2355 2354 -8.597405700000001E5
2355 2355 1.7159801400000001E6
2355 2356 -8.562395700000001E5
2356 2355 -8.597405700000001E5
2356 2356 1.7159801400000001E6
2356 2357 -8.562395700000001E5
2357 2356 -8.597405700000001E5
2357 2357 1.7159801400000001E6
2357 2358 -8.562395700000001E5
2358 2357 -8.597405700000001E5
2358 2358 1.7159801400000001E6
2358 2359 -8.562395700000001E5
2359 2358 -8.597405700000001E5
2359 2359 1.7159801400000001E6
2359 2360 -8.562395700000001E5
2360 2359 -8.597405700000001E5
2360 2360 1.7159801400000001E6
2360 2361 -8.562395700000001E5
2361 2360 -8.597405700000001E5
2361 2361 1.7159801400000001E6
2361 2362 -8.562395700000001E5
2362 2361 -8.597405700000001E5
2362 2362 1.7159801400000001E6
2362 2363 -8.562395700000001E5
2363 2362 -8.597405700000001E5
2363 2363 1.7159801400000001E6
2363 2364 -8.562395700000001E5
2364 2363 -8.597405700000001E5
2364 2364 1.7159801400000001E6
2364 2365 -8.562395700000001E5
2365 2364 -8.597405700000001E5
2365 2365 1.7159801400000001E6
2365 2366 -8.562395700000001E5
2366 2365 -8.597405700000001E5
2366 2366 1.7159801400000001E6
2366 2367 -8.562395700000001E5
2367 2366 -8.597405700000001E5
2367 2367 1.7159801400000001E6
2367 2368 -8.562395700000001E5
2368 2367 -8.597405700000001E5
2368 2368 1.7159801400000001E6
2368 2369 -8.562395700000001E5
2369 2368 -8.597405700000001E5
2369 2369 1.7159801400000001E6
2369 2370 -8.562395700000001E5
2370 2369 -8.597405700000001E5
2370 2370 1.7159801400000001E6
2370 2371 -8.562395700000001E5
2371 2370 -8.597405700000001E5
2371 2371 1.7159801400000001E6
2371 2372 -8.562395700000001E5
2372 2371 -8.597405700000001E5
2372 2372 1.7159801400000001E6
2372 2373 -8.562395700000001E5
2373 2372 -8.597405700000001E5
2373 2373 1.7159801400000001E6
2373 2374 -8.562395700000001E5
2374 2373 -8.597405700000001E5
2374 2374 1.7159801400000001E6
2374 2375 -8.562395700000001E5
2375 2374 -8.597405700000001E5
2375 2375 1.7159801400000001E6
2375 2376 -8.562395700000001E5
2376 2375 -8.597405700000001E5
2376 2376 1.7159801400000001E6
2376 2377 -8.562395700000001E5
2377 2376 -8.597405700000001E5
2377 2377 1.7159801400000001E6
2377 2378 -8.562395700000001E5
2378 2377 -8.597405700000001E5
2378 2378 1.7159801400000001E6
2378 2379 -8.562395700000001E5
2379 2378 -8.597405700000001E5
2379 2379 1.7159801400000001E6
2379 2380 -8.562395700000001E5
2380 2379 -8.597405700000001E5
2380 2380 1.7159801400000001E6
2380 2381 -8.562395700000001E5
2381 2380 -8.597405700000001E5
2381 2381 1.7159801400000001E6
2381 2382 -8.562395700000001E5
2382 2381 -8.597405700000001E5
2382 2382 1.7159801400000001E6
2382 2383 -8.562395700000001E5
2383 2382 -8.597405700000001E5
2383 2383 1.7159801400000001E6
2383 2384 -8.562395700000001E5
2384 2383 -8.597405700000001E5
2384 2384 1.7159801400000001E6
2384 2385 -8.562395700000001E5
2385 2384 -8.597405700000001E5
2385 2385 1.7159801400000001E6
2385 2386 -8.562395700000001E5
2386 2385 -8.597405700000001E5
2386 2386 1.7159801400000001E6
2386 2387 -8.562395700000001E5
2387 2386 -8.597405700000001E5
2387 2387 1.7159801400000001E6
2387 2388 -8.562395700000001E5
2388 2387 -8.597405700000001E5
2388 2388 1.7159801400000001E6
2388 2389 -8.562395700000001E5
2389 2388 -8.597405700000001E5
2389 2389 1.7159801400000001E6
2389 2390 -8.562395700000001E5
2390 2389 -8.597405700000001E5
2390 2390 1.7159801400000001E6
2390 2391 -8.562395700000001E5
2391 2390 -8.597405700000001E5
2391 2391 1.7159801400000001E6
2391 2392 -8.562395700000001E5
2392 2391 -8.597405700000001E5
2392 2392 1.7159801400000001E6
2392 2393 -8.562395700000001E5
2393 2392 -8.597405700000001E5
2393 2393 1.7159801400000001E6
2393 2394 -8.562395700000001E5
2394 2393 -8.597405700000001E5
2394 2394 1.7159801400000001E6
2394 2395 -8.562395700000001E5
2395 2394 -8.597405700000001E5
2395 2395 1.7159801400000001E6
2395 2396 -8.562395700000001E5
2396 2395 -8.597405700000001E5
2396 2396 1.7159801400000001E6
2396 2397 -8.562395700000001E5
2397 2396 -8.597405700000001E5
2397 2397 1.7159801400000001E6
2397 2398 -8.562395700000001E5
2398 2397 -8.597405700000001E5
2398 2398 1.7159801400000001E6
2398 2399 -8.562395700000001E5
2399 2398 -8.597405700000001E5
2399 2399 1.7159801400000001E6
2399 2400 -8.562395700000001E5
2400 2399 -8.597405700000001E5
2400 2400 1.7159801400000001E6
2400 2401 -8.562395700000001E5
2401 2400 -8.597405700000001E5
2401 2401 1.7159801400000001E6
2401 2402 -8.562395700000001E5
2402 2401 -8.597405700000001E5
2402 2402 1.7159801400000001E6
2402 2403 -8.562395700000001E5
2403 2402 -8.597405700000001E5
2403 2403 1.7159801400000001E6
2403 2404 -8.562395700000001E5
2404 2403 -8.597405700000001E5
2404 2404 1.7159801400000001E6
2404 2405 -8.562395700000001E5
2405 2404 -8.597405700000001E5
2405 2405 1.7159801400000001E6
2405 2406 -8.562395700000001E5
2406 2405 -8.597405700000001E5
2406 2406 1.7159801400000001E6
2406 2407 -8.562395700000001E5
2407 2406 -8.597405700000001E5
2407 2407 1.7159801400000001E6
2407 2408 -8.562395700000001E5
2408 2407 -8.597405700000001E5
2408 2408 1.7159801400000001E6
2408 2409 -8.562395700000001E5
2409 2408 -8.597405700000001E5
2409 2409 1.7159801400000001E6
2409 2410 -8.562395700000001E5
2410 2409 -8.597405700000001E5
2410 2410 1.7159801400000001E6
2410 2411 -8.562395700000001E5
2411 2410 -8.597405700000001E5
2411 2411 1.7159801400000001E6
2411 2412 -8.562395700000001E5
2412 2411 -8.597405700000001E5
2412 2412 1.7159801400000001E6
2412 2413 -8.562395700000001E5
2413 2412 -8.597405700000001E5
2413 2413 1.7159801400000001E6
2413 2414 -8.562395700000001E5
2414 2413 -8.597405700000001E5
2414 2414 1.7159801400000001E6
2414 2415 -8.562395700000001E5
2415 2414 -8.597405700000001E5
2415 2415 1.7159801400000001E6
2415 2416 -8.562395700000001E5
2416 2415 -8.597405700000001E5
2416 2416 1.7159801400000001E6
2416 2417 -8.562395700000001E5
2417 2416 -8.597405700000001E5
2417 2417 1.7159801400000001E6
2417 2418 -8.562395700000001E5
2418 2417 -8.597405700000001E5
2418 2418 1.7159801400000001E6
2418 2419 -8.562395700000001E5
2419 2418 -8.597405700000001E5
2419 2419 1.7159801400000001E6
2419 2420 -8.562395700000001E5
2420 2419 -8.597405700000001E5
2420 2420 1.7159801400000001E6
2420 2421 -8.562395700000001E5
2421 2420 -8.597405700000001E5
2421 2421 1.7159801400000001E6
2421 2422 -8.562395700000001E5
2422 2421 -8.597405700000001E5
2422 2422 1.7159801400000001E6
2422 2423 -8.562395700000001E5
2423 2422 -8.597405700000001E5
2423 2423 1.7159801400000001E6
2423 2424 -8.562395700000001E5
2424 2423 -8.597405700000001E5
2424 2424 1.7159801400000001E6
2424 2425 -8.562395700000001E5
2425 2424 -8.597405700000001E5
2425 2425 1.7159801400000001E6
2425 2426 -8.562395700000001E5
2426 2425 -8.597405700000001E5
2426 2426 1.7159801400000001E6
2426 2427 -8.562395700000001E5
2427 2426 -8.597405700000001E5
2427 2427 1.7159801400000001E6
2427 2428 -8.562395700000001E5
2428 2427 -8.597405700000001E5
2428 2428 1.7159801400000001E6
2428 2429 -8.562395700000001E5
2429 2428 -8.597405700000001E5
2429 2429 1.7159801400000001E6
2429 2430 -8.562395700000001E5
2430 2429 -8.597405700000001E5
2430 2430 1.7159801400000001E6
2430 2431 -8.562395700000001E5
2431 2430 -8.597405700000001E5
2431 2431 1.7159801400000001E6
2431 2432 -8.562395700000001E5
2432 2431 -8.597405700000001E5
2432 2432 1.7159801400000001E6
2432 2433 -8.562395700000001E5
2433 2432 -8.597405700000001E5
2433 2433 1.7159801400000001E6
2433 2434 -8.562395700000001E5
2434 2433 -8.597405700000001E5
2434 2434 1.7159801400000001E6
2434 2435 -8.562395700000001E5
2435 2434 -8.597405700000001E5
2435 2435 1.7159801400000001E6
2435 2436 -8.562395700000001E5
2436 2435 -8.597405700000001E5
2436 2436 1.7159801400000001E6
2436 2437 -8.562395700000001E5
2437 2436 -8.597405700000001E5
2437 2437 1.7159801400000001E6
2437 2438 -8.562395700000001E5
2438 2437 -8.597405700000001E5
2438 2438 1.7159801400000001E6
2438 2439 -8.562395700000001E5
2439 2438 -8.597405700000001E5
2439 2439 1.7159801400000001E6
2439 2440 -8.562395700000001E5
2440 2439 -8.597405700000001E5
2440 2440 1.7159801400000001E6
2440 2441 -8.562395700000001E5
2441 2440 -8.597405700000001E5
2441 2441 1.7159801400000001E6
2441 2442 -8.562395700000001E5
2442 2441 -8.597405700000001E5
2442 2442 1.7159801400000001E6
2442 2443 -8.562395700000001E5
2443 2442 -8.597405700000001E5
2443 2443 1.7159801400000001E6
2443 2444 -8.562395700000001E5
2444 2443 -8.597405700000001E5
2444 2444 1.7159801400000001E6
2444 2445 -8.562395700000001E5
2445 2444 -8.597405700000001E5
2445 2445 1.7159801400000001E6
2445 2446 -8.562395700000001E5
2446 2445 -8.597405700000001E5
2446 2446 1.7159801400000001E6
2446 2447 -8.562395700000001E5
2447 2446 -8.597405700000001E5
2447 2447 1.7159801400000001E6
2447 2448 -8.562395700000001E5
2448 2447 -8.597405700000001E5
2448 2448 1.7159801400000001E6
2448 2449 -8.562395700000001E5
2449 2448 -8.597405700000001E5
2449 2449 1.7159801400000001E6
2449 2450 -8.562395700000001E5
2450 2449 -8.597405700000001E5
2450 2450 1.7159801400000001E6
2450 2451 -8.562395700000001E5
2451 2450 -8.597405700000001E5
2451 2451 1.7159801400000001E6
2451 2452 -8.562395700000001E5
2452 2451 -8.597405700000001E5
2452 2452 1.7159801400000001E6
2452 2453 -8.562395700000001E5
2453 2452 -8.597405700000001E5
2453 2453 1.7159801400000001E6
2453 2454 -8.562395700000001E5
2454 2453 -8.597405700000001E5
2454 2454 1.7159801400000001E6
2454 2455 -8.562395700000001E5
2455 2454 -8.597405700000001E5
2455 2455 1.7159801400000001E6
2455 2456 -8.562395700000001E5
2456 2455 -8.597405700000001E5
2456 2456 1.7159801400000001E6
2456 2457 -8.562395700000001E5
2457 2456 -8.597405700000001E5
2457 2457 1.7159801400000001E6
2457 2458 -8.562395700000001E5
2458 2457 -8.597405700000001E5
2458 2458 1.7159801400000001E6
2458 2459 -8.562395700000001E5
2459 2458 -8.597405700000001E5
2459 2459 1.7159801400000001E6
2459 2460 -8.562395700000001E5
2460 2459 -8.597405700000001E5
2460 2460 1.7159801400000001E6
2460 2461 -8.562395700000001E5
2461 2460 -8.597405700000001E5
2461 2461 1.7159801400000001E6
2461 2462 -8.562395700000001E5
2462 2461 -8.597405700000001E5
2462 2462 1.7159801400000001E6
2462 2463 -8.562395700000001E5
2463 2462 -8.597405700000001E5
2463 2463 1.7159801400000001E6
2463 2464 -8.562395700000001E5
2464 2463 -8.597405700000001E5
2464 2464 1.7159801400000001E6
2464 2465 -8.562395700000001E5
2465 2464 -8.597405700000001E5
2465 2465 1.7159801400000001E6
2465 2466 -8.562395700000001E5
2466 2465 -8.597405700000001E5
2466 2466 1.7159801400000001E6
2466 2467 -8.562395700000001E5
2467 2466 -8.597405700000001E5
2467 2467 1.7159801400000001E6
2467 2468 -8.562395700000001E5
2468 2467 -8.597405700000001E5
2468 2468 1.7159801400000001E6
2468 2469 -8.562395700000001E5
2469 2468 -8.597405700000001E5
2469 2469 1.7159801400000001E6
2469 2470 -8.562395700000001E5
2470 2469 -8.597405700000001E5
2470 2470 1.7159801400000001E6
2470 2471 -8.562395700000001E5
2471 2470 -8.597405700000001E5
2471 2471 1.7159801400000001E6
2471 2472 -8.562395700000001E5
2472 2471 -8.597405700000001E5
2472 2472 1.7159801400000001E6
2472 2473 -8.562395700000001E5
2473 2472 -8.597405700000001E5
2473 2473 1.7159801400000001E6
2473 2474 -8.562395700000001E5
2474 2473 -8.597405700000001E5
2474 2474 1.7159801400000001E6
2474 2475 -8.562395700000001E5
2475 2474 -8.597405700000001E5
2475 2475 1.7159801400000001E6
2475 2476 -8.562395700000001E5
2476 2475 -8.597405700000001E5
2476 2476 1.7159801400000001E6
2476 2477 -8.562395700000001E5
2477 2476 -8.597405700000001E5
2477 2477 1.7159801400000001E6
2477 2478 -8.562395700000001E5
2478 2477 -8.597405700000001E5
2478 2478 1.7159801400000001E6
2478 2479 -8.562395700000001E5
2479 2478 -8.597405700000001E5
2479 2479 1.7159801400000001E6
2479 2480 -8.562395700000001E5
2480 2479 -8.597405700000001E5
2480 2480 1.7159801400000001E6
2480 2481 -8.562395700000001E5
2481 2480 -8.597405700000001E5
2481 2481 1.7159801400000001E6
2481 2482 -8.562395700000001E5
2482 2481 -8.597405700000001E5
2482 2482 1.7159801400000001E6
2482 2483 -8.562395700000001E5
2483 2482 -8.597405700000001E5
2483 2483 1.7159801400000001E6
2483 2484 -8.562395700000001E5
2484 2483 -8.597405700000001E5
2484 2484 1.7159801400000001E6
2484 2485 -8.562395700000001E5
2485 2484 -8.597405700000001E5
2485 2485 1.7159801400000001E6
2485 2486 -8.562395700000001E5
2486 2485 -8.597405700000001E5
2486 2486 1.7159801400000001E6
2486 2487 -8.562395700000001E5
2487 2486 -8.597405700000001E5
2487 2487 1.7159801400000001E6
2487 2488 -8.562395700000001E5
2488 2487 -8.597405700000001E5
2488 2488 1.7159801400000001E6
2488 2489 -8.562395700000001E5
2489 2488 -8.597405700000001E5
2489 2489 1.7159801400000001E6
2489 2490 -8.562395700000001E5
2490 2489 -8.597405700000001E5
2490 2490 1.7159801400000001E6
2490 2491 -8.562395700000001E5
2491 2490 -8.597405700000001E5
2491 2491 1.7159801400000001E6
2491 2492 -8.562395700000001E5
2492 2491 -8.597405700000001E5
2492 2492 1.7159801400000001E6
2492 2493 -8.562395700000001E5
2493 2492 -8.597405700000001E5
2493 2493 1.7159801400000001E6
2493 2494 -8.562395700000001E5
2494 2493 -8.597405700000001E5
2494 2494 1.7159801400000001E6
2494 2495 -8.562395700000001E5
2495 2494 -8.597405700000001E5
2495 2495 1.7159801400000001E6
2495 2496 -8.562395700000001E5
2496 2495 -8.597405700000001E5
2496 2496 1.7159801400000001E6
2496 2497 -8.562395700000001E5
2497 2496 -8.597405700000001E5
2497 2497 1.7159801400000001E6
2497 2498 -8.562395700000001E5
2498 2497 -8.597405700000001E5
2498 2498 1.7159801400000001E6
2498 2499 -8.562395700000001E5
2499 2498 -8.597405700000001E5
2499 2499 1.7159801400000001E6
2499 2500 -8.562395700000001E5
2500 2499 -8.597405700000001E5
2500 2500 1.7159801400000001E6
2500 2501 -8.562395700000001E5
2501 2500 -8.597405700000001E5
2501 2501 1.7159801400000001E6
2501 2502 -8.562395700000001E5
2502 2501 -8.597405700000001E5
2502 2502 1.7159801400000001E6
2502 2503 -8.562395700000001E5
2503 2502 -8.597405700000001E5
2503 2503 1.7159801400000001E6
2503 2504 -8.562395700000001E5
2504 2503 -8.597405700000001E5
2504 2504 1.7159801400000001E6
2504 2505 -8.562395700000001E5
2505 2504 -8.597405700000001E5
2505 2505 1.7159801400000001E6
2505 2506 -8.562395700000001E5
2506 2505 -8.597405700000001E5
2506 2506 1.7159801400000001E6
2506 2507 -8.562395700000001E5
2507 2506 -8.597405700000001E5
2507 2507 1.7159801400000001E6
2507 2508 -8.562395700000001E5
2508 2507 -8.597405700000001E5
2508 2508 1.7159801400000001E6
2508 2509 -8.562395700000001E5
2509 2508 -8.597405700000001E5
2509 2509 1.7159801400000001E6
2509 2510 -8.562395700000001E5
2510 2509 -8.597405700000001E5
2510 2510 1.7159801400000001E6
2510 2511 -8.562395700000001E5
2511 2510 -8.597405700000001E5
2511 2511 1.7159801400000001E6
2511 2512 -8.562395700000001E5
2512 2511 -8.597405700000001E5
2512 2512 1.7159801400000001E6
2512 2513 -8.562395700000001E5
2513 2512 -8.597405700000001E5
2513 2513 1.7159801400000001E6
2513 2514 -8.562395700000001E5
2514 2513 -8.597405700000001E5
2514 2514 1.7159801400000001E6
2514 2515 -8.562395700000001E5
2515 2514 -8.597405700000001E5
2515 2515 1.7159801400000001E6
2515 2516 -8.562395700000001E5
2516 2515 -8.597405700000001E5
2516 2516 1.7159801400000001E6
2516 2517 -8.562395700000001E5
2517 2516 -8.597405700000001E5
2517 2517 1.7159801400000001E6
2517 2518 -8.562395700000001E5
2518 2517 -8.597405700000001E5
2518 2518 1.7159801400000001E6
2518 2519 -8.562395700000001E5
2519 2518 -8.597405700000001E5
2519 2519 1.7159801400000001E6
2519 2520 -8.562395700000001E5
2520 2519 -8.597405700000001E5
2520 2520 1.7159801400000001E6
2520 2521 -8.562395700000001E5
2521 2520 -8.597405700000001E5
2521 2521 1.7159801400000001E6
2521 2522 -8.562395700000001E5
2522 2521 -8.597405700000001E5
2522 2522 1.7159801400000001E6
2522 2523 -8.562395700000001E5
2523 2522 -8.597405700000001E5
2523 2523 1.7159801400000001E6
2523 2524 -8.562395700000001E5
2524 2523 -8.597405700000001E5
2524 2524 1.7159801400000001E6
2524 2525 -8.562395700000001E5
2525 2524 -8.597405700000001E5
2525 2525 1.7159801400000001E6
2525 2526 -8.562395700000001E5
2526 2525 -8.597405700000001E5
2526 2526 1.7159801400000001E6
2526 2527 -8.562395700000001E5
2527 2526 -8.597405700000001E5
2527 2527 1.7159801400000001E6
2527 2528 -8.562395700000001E5
2528 2527 -8.597405700000001E5
2528 2528 1.7159801400000001E6
2528 2529 -8.562395700000001E5
2529 2528 -8.597405700000001E5
2529 2529 1.7159801400000001E6
2529 2530 -8.562395700000001E5
2530 2529 -8.597405700000001E5
2530 2530 1.7159801400000001E6
2530 2531 -8.562395700000001E5
2531 2530 -8.597405700000001E5
2531 2531 1.7159801400000001E6
2531 2532 -8.562395700000001E5
2532 2531 -8.597405700000001E5
2532 2532 1.7159801400000001E6
2532 2533 -8.562395700000001E5
2533 2532 -8.597405700000001E5
2533 2533 1.7159801400000001E6
2533 2534 -8.562395700000001E5
2534 2533 -8.597405700000001E5
2534 2534 1.7159801400000001E6
2534 2535 -8.562395700000001E5
2535 2534 -8.597405700000001E5
2535 2535 1.7159801400000001E6
2535 2536 -8.562395700000001E5
2536 2535 -8.597405700000001E5
2536 2536 1.7159801400000001E6
2536 2537 -8.562395700000001E5
2537 2536 -8.597405700000001E5
2537 2537 1.7159801400000001E6
2537 2538 -8.562395700000001E5
2538 2537 -8.597405700000001E5
2538 2538 1.7159801400000001E6
2538 2539 -8.562395700000001E5
2539 2538 -8.597405700000001E5
2539 2539 1.7159801400000001E6
2539 2540 -8.562395700000001E5
2540 2539 -8.597405700000001E5
2540 2540 1.7159801400000001E6
2540 2541 -8.562395700000001E5
2541 2540 -8.597405700000001E5
2541 2541 1.7159801400000001E6
2541 2542 -8.562395700000001E5
2542 2541 -8.597405700000001E5
2542 2542 1.7159801400000001E6
2542 2543 -8.562395700000001E5
2543 2542 -8.597405700000001E5
2543 2543 1.7159801400000001E6
2543 2544 -8.562395700000001E5
2544 2543 -8.597405700000001E5
2544 2544 1.7159801400000001E6
2544 2545 -8.562395700000001E5
2545 2544 -8.597405700000001E5
2545 2545 1.7159801400000001E6
2545 2546 -8.562395700000001E5
2546 2545 -8.597405700000001E5
2546 2546 1.7159801400000001E6
2546 2547 -8.562395700000001E5
2547 2546 -8.597405700000001E5
2547 2547 1.7159801400000001E6
2547 2548 -8.562395700000001E5
2548 2547 -8.597405700000001E5
2548 2548 1.7159801400000001E6
2548 2549 -8.562395700000001E5
2549 2548 -8.597405700000001E5
2549 2549 1.7159801400000001E6
2549 2550 -8.562395700000001E5
2550 2549 -8.597405700000001E5
2550 2550 1.7159801400000001E6
2550 2551 -8.562395700000001E5
2551 2550 -8.597405700000001E5
2551 2551 1.7159801400000001E6
2551 2552 -8.562395700000001E5
2552 2551 -8.597405700000001E5
2552 2552 1.7159801400000001E6
2552 2553 -8.562395700000001E5
2553 2552 -8.597405700000001E5
2553 2553 1.7159801400000001E6
2553 2554 -8.562395700000001E5
2554 2553 -8.597405700000001E5
2554 2554 1.7159801400000001E6
2554 2555 -8.562395700000001E5
2555 2554 -8.597405700000001E5
2555 2555 1.7159801400000001E6
2555 2556 -8.562395700000001E5
2556 2555 -8.597405700000001E5
2556 2556 1.7159801400000001E6
2556 2557 -8.562395700000001E5
2557 2556 -8.597405700000001E5
2557 2557 1.7159801400000001E6
2557 2558 -8.562395700000001E5
2558 2557 -8.597405700000001E5
2558 2558 1.7159801400000001E6
2558 2559 -8.562395700000001E5
2559 2558 -8.597405700000001E5
2559 2559 1.7159801400000001E6
2559 2560 -8.562395700000001E5
2560 2559 -8.597405700000001E5
2560 2560 1.7159801400000001E6
2560 2561 -8.562395700000001E5
2561 2560 -8.597405700000001E5
2561 2561 1.7159801400000001E6
2561 2562 -8.562395700000001E5
2562 2561 -8.597405700000001E5
2562 2562 1.7159801400000001E6
2562 2563 -8.562395700000001E5
2563 2562 -8.597405700000001E5
2563 2563 1.7159801400000001E6
2563 2564 -8.562395700000001E5
2564 2563 -8.597405700000001E5
2564 2564 1.7159801400000001E6
2564 2565 -8.562395700000001E5
2565 2564 -8.597405700000001E5
2565 2565 1.7159801400000001E6
2565 2566 -8.562395700000001E5
2566 2565 -8.597405700000001E5
2566 2566 1.7159801400000001E6
2566 2567 -8.562395700000001E5
2567 2566 -8.597405700000001E5
2567 2567 1.7159801400000001E6
2567 2568 -8.562395700000001E5
2568 2567 -8.597405700000001E5
2568 2568 1.7159801400000001E6
2568 2569 -8.562395700000001E5
2569 2568 -8.597405700000001E5
2569 2569 1.7159801400000001E6
2569 2570 -8.562395700000001E5
2570 2569 -8.597405700000001E5
2570 2570 1.7159801400000001E6
2570 2571 -8.562395700000001E5
2571 2570 -8.597405700000001E5
2571 2571 1.7159801400000001E6
2571 2572 -8.562395700000001E5
2572 2571 -8.597405700000001E5
2572 2572 1.7159801400000001E6
2572 2573 -8.562395700000001E5
2573 2572 -8.597405700000001E5
2573 2573 1.7159801400000001E6
2573 2574 -8.562395700000001E5
2574 2573 -8.597405700000001E5
2574 2574 1.7159801400000001E6
2574 2575 -8.562395700000001E5
2575 2574 -8.597405700000001E5
2575 2575 1.7159801400000001E6
2575 2576 -8.562395700000001E5
2576 2575 -8.597405700000001E5
2576 2576 1.7159801400000001E6
2576 2577 -8.562395700000001E5
2577 2576 -8.597405700000001E5
2577 2577 1.7159801400000001E6
2577 2578 -8.562395700000001E5
2578 2577 -8.597405700000001E5
2578 2578 1.7159801400000001E6
2578 2579 -8.562395700000001E5
2579 2578 -8.597405700000001E5
2579 2579 1.7159801400000001E6
2579 2580 -8.562395700000001E5
2580 2579 -8.597405700000001E5
2580 2580 1.7159801400000001E6
2580 2581 -8.562395700000001E5
2581 2580 -8.597405700000001E5
2581 2581 1.7159801400000001E6
2581 2582 -8.562395700000001E5
2582 2581 -8.597405700000001E5
2582 2582 1.7159801400000001E6
2582 2583 -8.562395700000001E5
2583 2582 -8.597405700000001E5
2583 2583 1.7159801400000001E6
2583 2584 -8.562395700000001E5
2584 2583 -8.597405700000001E5
2584 2584 1.7159801400000001E6
2584 2585 -8.562395700000001E5
2585 2584 -8.597405700000001E5
2585 2585 1.7159801400000001E6
2585 2586 -8.562395700000001E5
2586 2585 -8.597405700000001E5
2586 2586 1.7159801400000001E6
2586 2587 -8.562395700000001E5
2587 2586 -8.597405700000001E5
2587 2587 1.7159801400000001E6
2587 2588 -8.562395700000001E5
2588 2587 -8.597405700000001E5
2588 2588 1.7159801400000001E6
2588 2589 -8.562395700000001E5
2589 2588 -8.597405700000001E5
2589 2589 1.7159801400000001E6
2589 2590 -8.562395700000001E5
2590 2589 -8.597405700000001E5
2590 2590 1.7159801400000001E6
2590 2591 -8.562395700000001E5
2591 2590 -8.597405700000001E5
2591 2591 1.7159801400000001E6
2591 2592 -8.562395700000001E5
2592 2591 -8.597405700000001E5
2592 2592 1.7159801400000001E6
2592 2593 -8.562395700000001E5
2593 2592 -8.597405700000001E5
2593 2593 1.7159801400000001E6
2593 2594 -8.562395700000001E5
2594 2593 -8.597405700000001E5
2594 2594 1.7159801400000001E6
2594 2595 -8.562395700000001E5
2595 2594 -8.597405700000001E5
2595 2595 1.7159801400000001E6
2595 2596 -8.562395700000001E5
2596 2595 -8.597405700000001E5
2596 2596 1.7159801400000001E6
2596 2597 -8.562395700000001E5
2597 2596 -8.597405700000001E5
2597 2597 1.7159801400000001E6
2597 2598 -8.562395700000001E5
2598 2597 -8.597405700000001E5
2598 2598 1.7159801400000001E6
2598 2599 -8.562395700000001E5
2599 2598 -8.597405700000001E5
2599 2599 1.7159801400000001E6
2599 2600 -8.562395700000001E5
2600 2599 -8.597405700000001E5
2600 2600 1.7159801400000001E6
2600 2601 -8.562395700000001E5
2601 2600 -8.597405700000001E5
2601 2601 1.7159801400000001E6
2601 2602 -8.562395700000001E5
2602 2601 -8.597405700000001E5
2602 2602 1.7159801400000001E6
2602 2603 -8.562395700000001E5
2603 2602 -8.597405700000001E5
2603 2603 1.7159801400000001E6
2603 2604 -8.562395700000001E5
2604 2603 -8.597405700000001E5
2604 2604 1.7159801400000001E6
2604 2605 -8.562395700000001E5
2605 2604 -8.597405700000001E5
2605 2605 1.7159801400000001E6
2605 2606 -8.562395700000001E5
2606 2605 -8.597405700000001E5
2606 2606 1.7159801400000001E6
2606 2607 -8.562395700000001E5
2607 2606 -8.597405700000001E5
2607 2607 1.7159801400000001E6
2607 2608 -8.562395700000001E5
2608 2607 -8.597405700000001E5
2608 2608 1.7159801400000001E6
2608 2609 -8.562395700000001E5
2609 2608 -8.597405700000001E5
2609 2609 1.7159801400000001E6
2609 2610 -8.562395700000001E5
2610 2609 -8.597405700000001E5
2610 2610 1.7159801400000001E6
2610 2611 -8.562395700000001E5
2611 2610 -8.597405700000001E5
2611 2611 1.7159801400000001E6
2611 2612 -8.562395700000001E5
2612 2611 -8.597405700000001E5
2612 2612 1.7159801400000001E6
2612 2613 -8.562395700000001E5
2613 2612 -8.597405700000001E5
2613 2613 1.7159801400000001E6
2613 2614 -8.562395700000001E5
2614 2613 -8.597405700000001E5
2614 2614 1.7159801400000001E6
2614 2615 -8.562395700000001E5
2615 2614 -8.597405700000001E5
2615 2615 1.7159801400000001E6
2615 2616 -8.562395700000001E5
2616 2615 -8.597405700000001E5
2616 2616 1.7159801400000001E6
2616 2617 -8.562395700000001E5
2617 2616 -8.597405700000001E5
2617 2617 1.7159801400000001E6
2617 2618 -8.562395700000001E5
2618 2617 -8.597405700000001E5
2618 2618 1.7159801400000001E6
2618 2619 -8.562395700000001E5
2619 2618 -8.597405700000001E5
2619 2619 1.7159801400000001E6
2619 2620 -8.562395700000001E5
2620 2619 -8.597405700000001E5
2620 2620 1.7159801400000001E6
2620 2621 -8.562395700000001E5
2621 2620 -8.597405700000001E5
2621 2621 1.7159801400000001E6
2621 2622 -8.562395700000001E5
2622 2621 -8.597405700000001E5
2622 2622 1.7159801400000001E6
2622 2623 -8.562395700000001E5
2623 2622 -8.597405700000001E5
2623 2623 1.7159801400000001E6
2623 2624 -8.562395700000001E5
2624 2623 -8.597405700000001E5
2624 2624 1.7159801400000001E6
2624 2625 -8.562395700000001E5
2625 2624 -8.597405700000001E5
2625 2625 1.7159801400000001E6
2625 2626 -8.562395700000001E5
2626 2625 -8.597405700000001E5
2626 2626 1.7159801400000001E6
2626 2627 -8.562395700000001E5
2627 2626 -8.597405700000001E5
2627 2627 1.7159801400000001E6
2627 2628 -8.562395700000001E5
2628 2627 -8.597405700000001E5
2628 2628 1.7159801400000001E6
2628 2629 -8.562395700000001E5
2629 2628 -8.597405700000001E5
2629 2629 1.7159801400000001E6
2629 2630 -8.562395700000001E5
2630 2629 -8.597405700000001E5
2630 2630 1.7159801400000001E6
2630 2631 -8.562395700000001E5
2631 2630 -8.597405700000001E5
2631 2631 1.7159801400000001E6
2631 2632 -8.562395700000001E5
2632 2631 -8.597405700000001E5
2632 2632 1.7159801400000001E6
2632 2633 -8.562395700000001E5
2633 2632 -8.597405700000001E5
2633 2633 1.7159801400000001E6
2633 2634 -8.562395700000001E5
2634 2633 -8.597405700000001E5
2634 2634 1.7159801400000001E6
2634 2635 -8.562395700000001E5
2635 2634 -8.597405700000001E5
2635 2635 1.7159801400000001E6
2635 2636 -8.562395700000001E5
2636 2635 -8.597405700000001E5
2636 2636 1.7159801400000001E6
2636 2637 -8.562395700000001E5
2637 2636 -8.597405700000001E5
2637 2637 1.7159801400000001E6
2637 2638 -8.562395700000001E5
2638 2637 -8.597405700000001E5
2638 2638 1.7159801400000001E6
2638 2639 -8.562395700000001E5
2639 2638 -8.597405700000001E5
2639 2639 1.7159801400000001E6
2639 2640 -8.562395700000001E5
2640 2639 -8.597405700000001E5
2640 2640 1.7159801400000001E6
2640 2641 -8.562395700000001E5
2641 2640 -8.597405700000001E5
2641 2641 1.7159801400000001E6
2641 2642 -8.562395700000001E5
2642 2641 -8.597405700000001E5
2642 2642 1.7159801400000001E6
2642 2643 -8.562395700000001E5
2643 2642 -8.597405700000001E5
2643 2643 1.7159801400000001E6
2643 2644 -8.562395700000001E5
2644 2643 -8.597405700000001E5
2644 2644 1.7159801400000001E6
2644 2645 -8.562395700000001E5
2645 2644 -8.597405700000001E5
2645 2645 1.7159801400000001E6
2645 2646 -8.562395700000001E5
2646 2645 -8.597405700000001E5
2646 2646 1.7159801400000001E6
2646 2647 -8.562395700000001E5
2647 2646 -8.597405700000001E5
2647 2647 1.7159801400000001E6
2647 2648 -8.562395700000001E5
2648 2647 -8.597405700000001E5
2648 2648 1.7159801400000001E6
2648 2649 -8.562395700000001E5
2649 2648 -8.597405700000001E5
2649 2649 1.7159801400000001E6
2649 2650 -8.562395700000001E5
2650 2649 -8.597405700000001E5
2650 2650 1.7159801400000001E6
2650 2651 -8.562395700000001E5
2651 2650 -8.597405700000001E5
2651 2651 1.7159801400000001E6
2651 2652 -8.562395700000001E5
2652 2651 -8.597405700000001E5
2652 2652 1.7159801400000001E6
2652 2653 -8.562395700000001E5
2653 2652 -8.597405700000001E5
2653 2653 1.7159801400000001E6
2653 2654 -8.562395700000001E5
2654 2653 -8.597405700000001E5
2654 2654 1.7159801400000001E6
2654 2655 -8.562395700000001E5
2655 2654 -8.597405700000001E5
2655 2655 1.7159801400000001E6
2655 2656 -8.562395700000001E5
2656 2655 -8.597405700000001E5
2656 2656 1.7159801400000001E6
2656 2657 -8.562395700000001E5
2657 2656 -8.597405700000001E5
2657 2657 1.7159801400000001E6
2657 2658 -8.562395700000001E5
2658 2657 -8.597405700000001E5
2658 2658 1.7159801400000001E6
2658 2659 -8.562395700000001E5
2659 2658 -8.597405700000001E5
2659 2659 1.7159801400000001E6
2659 2660 -8.562395700000001E5
2660 2659 -8.597405700000001E5
2660 2660 1.7159801400000001E6
2660 2661 -8.562395700000001E5
2661 2660 -8.597405700000001E5
2661 2661 1.7159801400000001E6
2661 2662 -8.562395700000001E5
2662 2661 -8.597405700000001E5
2662 2662 1.7159801400000001E6
2662 2663 -8.562395700000001E5
2663 2662 -8.597405700000001E5
2663 2663 1.7159801400000001E6
2663 2664 -8.562395700000001E5
2664 2663 -8.597405700000001E5
2664 2664 1.7159801400000001E6
2664 2665 -8.562395700000001E5
2665 2664 -8.597405700000001E5
2665 2665 1.7159801400000001E6
2665 2666 -8.562395700000001E5
2666 2665 -8.597405700000001E5
2666 2666 1.7159801400000001E6
2666 2667 -8.562395700000001E5
2667 2666 -8.597405700000001E5
2667 2667 1.7159801400000001E6
2667 2668 -8.562395700000001E5
2668 2667 -8.597405700000001E5
2668 2668 1.7159801400000001E6
2668 2669 -8.562395700000001E5
2669 2668 -8.597405700000001E5
2669 2669 1.7159801400000001E6
2669 2670 -8.562395700000001E5
2670 2669 -8.597405700000001E5
2670 2670 1.7159801400000001E6
2670 2671 -8.562395700000001E5
2671 2670 -8.597405700000001E5
2671 2671 1.7159801400000001E6
2671 2672 -8.562395700000001E5
2672 2671 -8.597405700000001E5
2672 2672 1.7159801400000001E6
2672 2673 -8.562395700000001E5
2673 2672 -8.597405700000001E5
2673 2673 1.7159801400000001E6
2673 2674 -8.562395700000001E5
2674 2673 -8.597405700000001E5
2674 2674 1.7159801400000001E6
2674 2675 -8.562395700000001E5
2675 2674 -8.597405700000001E5
2675 2675 1.7159801400000001E6
2675 2676 -8.562395700000001E5
2676 2675 -8.597405700000001E5
2676 2676 1.7159801400000001E6
2676 2677 -8.562395700000001E5
2677 2676 -8.597405700000001E5
2677 2677 1.7159801400000001E6
2677 2678 -8.562395700000001E5
2678 2677 -8.597405700000001E5
2678 2678 1.7159801400000001E6
2678 2679 -8.562395700000001E5
2679 2678 -8.597405700000001E5
2679 2679 1.7159801400000001E6
2679 2680 -8.562395700000001E5
2680 2679 -8.597405700000001E5
2680 2680 1.7159801400000001E6
2680 2681 -8.562395700000001E5
2681 2680 -8.597405700000001E5
2681 2681 1.7159801400000001E6
2681 2682 -8.562395700000001E5
2682 2681 -8.597405700000001E5
2682 2682 1.7159801400000001E6
2682 2683 -8.562395700000001E5
2683 2682 -8.597405700000001E5
2683 2683 1.7159801400000001E6
2683 2684 -8.562395700000001E5
2684 2683 -8.597405700000001E5
2684 2684 1.7159801400000001E6
2684 2685 -8.562395700000001E5
2685 2684 -8.597405700000001E5
2685 2685 1.7159801400000001E6
2685 2686 -8.562395700000001E5
2686 2685 -8.597405700000001E5
2686 2686 1.7159801400000001E6
2686 2687 -8.562395700000001E5
2687 2686 -8.597405700000001E5
2687 2687 1.7159801400000001E6
2687 2688 -8.562395700000001E5
2688 2687 -8.597405700000001E5
2688 2688 1.7159801400000001E6
2688 2689 -8.562395700000001E5
2689 2688 -8.597405700000001E5
2689 2689 1.7159801400000001E6
2689 2690 -8.562395700000001E5
2690 2689 -8.597405700000001E5
2690 2690 1.7159801400000001E6
2690 2691 -8.562395700000001E5
2691 2690 -8.597405700000001E5
2691 2691 1.7159801400000001E6
2691 2692 -8.562395700000001E5
2692 2691 -8.597405700000001E5
2692 2692 1.7159801400000001E6
2692 2693 -8.562395700000001E5
2693 2692 -8.597405700000001E5
2693 2693 1.7159801400000001E6
2693 2694 -8.562395700000001E5
2694 2693 -8.597405700000001E5
2694 2694 1.7159801400000001E6
2694 2695 -8.562395700000001E5
2695 2694 -8.597405700000001E5
2695 2695 1.7159801400000001E6
2695 2696 -8.562395700000001E5
2696 2695 -8.597405700000001E5
2696 2696 1.7159801400000001E6
2696 2697 -8.562395700000001E5
2697 2696 -8.597405700000001E5
2697 2697 1.7159801400000001E6
2697 2698 -8.562395700000001E5
2698 2697 -8.597405700000001E5
2698 2698 1.7159801400000001E6
2698 2699 -8.562395700000001E5
2699 2698 -8.597405700000001E5
2699 2699 1.7159801400000001E6
2699 2700 -8.562395700000001E5
2700 2699 -8.597405700000001E5
2700 2700 1.7159801400000001E6
2700 2701 -8.562395700000001E5
2701 2700 -8.597405700000001E5
2701 2701 1.7159801400000001E6
2701 2702 -8.562395700000001E5
2702 2701 -8.597405700000001E5
2702 2702 1.7159801400000001E6
2702 2703 -8.562395700000001E5
2703 2702 -8.597405700000001E5
2703 2703 1.7159801400000001E6
2703 2704 -8.562395700000001E5
2704 2703 -8.597405700000001E5
2704 2704 1.7159801400000001E6
2704 2705 -8.562395700000001E5
2705 2704 -8.597405700000001E5
2705 2705 1.7159801400000001E6
2705 2706 -8.562395700000001E5
2706 2705 -8.597405700000001E5
2706 2706 1.7159801400000001E6
2706 2707 -8.562395700000001E5
2707 2706 -8.597405700000001E5
2707 2707 1.7159801400000001E6
2707 2708 -8.562395700000001E5
2708 2707 -8.597405700000001E5
2708 2708 1.7159801400000001E6
2708 2709 -8.562395700000001E5
2709 2708 -8.597405700000001E5
2709 2709 1.7159801400000001E6
2709 2710 -8.562395700000001E5
2710 2709 -8.597405700000001E5
2710 2710 1.7159801400000001E6
2710 2711 -8.562395700000001E5
2711 2710 -8.597405700000001E5
2711 2711 1.7159801400000001E6
2711 2712 -8.562395700000001E5
2712 2711 -8.597405700000001E5
2712 2712 1.7159801400000001E6
2712 2713 -8.562395700000001E5
2713 2712 -8.597405700000001E5
2713 2713 1.7159801400000001E6
2713 2714 -8.562395700000001E5
2714 2713 -8.597405700000001E5
2714 2714 1.7159801400000001E6
2714 2715 -8.562395700000001E5
2715 2714 -8.597405700000001E5
2715 2715 1.7159801400000001E6
2715 2716 -8.562395700000001E5
2716 2715 -8.597405700000001E5
2716 2716 1.7159801400000001E6
2716 2717 -8.562395700000001E5
2717 2716 -8.597405700000001E5
2717 2717 1.7159801400000001E6
2717 2718 -8.562395700000001E5
2718 2717 -8.597405700000001E5
2718 2718 1.7159801400000001E6
2718 2719 -8.562395700000001E5
2719 2718 -8.597405700000001E5
2719 2719 1.7159801400000001E6
2719 2720 -8.562395700000001E5
2720 2719 -8.597405700000001E5
2720 2720 1.7159801400000001E6
2720 2721 -8.562395700000001E5
2721 2720 -8.597405700000001E5
2721 2721 1.7159801400000001E6
2721 2722 -8.562395700000001E5
2722 2721 -8.597405700000001E5
2722 2722 1.7159801400000001E6
2722 2723 -8.562395700000001E5
2723 2722 -8.597405700000001E5
2723 2723 1.7159801400000001E6
2723 2724 -8.562395700000001E5
2724 2723 -8.597405700000001E5
2724 2724 1.7159801400000001E6
2724 2725 -8.562395700000001E5
2725 2724 -8.597405700000001E5
2725 2725 1.7159801400000001E6
2725 2726 -8.562395700000001E5
2726 2725 -8.597405700000001E5
2726 2726 1.7159801400000001E6
2726 2727 -8.562395700000001E5
2727 2726 -8.597405700000001E5
2727 2727 1.7159801400000001E6
2727 2728 -8.562395700000001E5
2728 2727 -8.597405700000001E5
2728 2728 1.7159801400000001E6
2728 2729 -8.562395700000001E5
2729 2728 -8.597405700000001E5
2729 2729 1.7159801400000001E6
2729 2730 -8.562395700000001E5
2730 2729 -8.597405700000001E5
2730 2730 1.7159801400000001E6
2730 2731 -8.562395700000001E5
2731 2730 -8.597405700000001E5
2731 2731 1.7159801400000001E6
2731 2732 -8.562395700000001E5
2732 2731 -8.597405700000001E5
2732 2732 1.7159801400000001E6
2732 2733 -8.562395700000001E5
2733 2732 -8.597405700000001E5
2733 2733 1.7159801400000001E6
2733 2734 -8.562395700000001E5
2734 2733 -8.597405700000001E5
2734 2734 1.7159801400000001E6
2734 2735 -8.562395700000001E5
2735 2734 -8.597405700000001E5
2735 2735 1.7159801400000001E6
2735 2736 -8.562395700000001E5
2736 2735 -8.597405700000001E5
2736 2736 1.7159801400000001E6
2736 2737 -8.562395700000001E5
2737 2736 -8.597405700000001E5
2737 2737 1.7159801400000001E6
2737 2738 -8.562395700000001E5
2738 2737 -8.597405700000001E5
2738 2738 1.7159801400000001E6
2738 2739 -8.562395700000001E5
2739 2738 -8.597405700000001E5
2739 2739 1.7159801400000001E6
2739 2740 -8.562395700000001E5
2740 2739 -8.597405700000001E5
2740 2740 1.7159801400000001E6
2740 2741 -8.562395700000001E5
2741 2740 -8.597405700000001E5
2741 2741 1.7159801400000001E6
2741 2742 -8.562395700000001E5
2742 2741 -8.597405700000001E5
2742 2742 1.7159801400000001E6
2742 2743 -8.562395700000001E5
2743 2742 -8.597405700000001E5
2743 2743 1.7159801400000001E6
2743 2744 -8.562395700000001E5
2744 2743 -8.597405700000001E5
2744 2744 1.7159801400000001E6
2744 2745 -8.562395700000001E5
2745 2744 -8.597405700000001E5
2745 2745 1.7159801400000001E6
2745 2746 -8.562395700000001E5
2746 2745 -8.597405700000001E5
2746 2746 1.7159801400000001E6
2746 2747 -8.562395700000001E5
2747 2746 -8.597405700000001E5
2747 2747 1.7159801400000001E6
2747 2748 -8.562395700000001E5
2748 2747 -8.597405700000001E5
2748 2748 1.7159801400000001E6
2748 2749 -8.562395700000001E5
2749 2748 -8.597405700000001E5
2749 2749 1.7159801400000001E6
2749 2750 -8.562395700000001E5
2750 2749 -8.597405700000001E5
2750 2750 1.7159801400000001E6
2750 2751 -8.562395700000001E5
2751 2750 -8.597405700000001E5
2751 2751 1.7159801400000001E6
2751 2752 -8.562395700000001E5
2752 2751 -8.597405700000001E5
2752 2752 1.7159801400000001E6
2752 2753 -8.562395700000001E5
2753 2752 -8.597405700000001E5
2753 2753 1.7159801400000001E6
2753 2754 -8.562395700000001E5
2754 2753 -8.597405700000001E5
2754 2754 1.7159801400000001E6
2754 2755 -8.562395700000001E5
2755 2754 -8.597405700000001E5
2755 2755 1.7159801400000001E6
2755 2756 -8.562395700000001E5
2756 2755 -8.597405700000001E5
2756 2756 1.7159801400000001E6
2756 2757 -8.562395700000001E5
2757 2756 -8.597405700000001E5
2757 2757 1.7159801400000001E6
2757 2758 -8.562395700000001E5
2758 2757 -8.597405700000001E5
2758 2758 1.7159801400000001E6
2758 2759 -8.562395700000001E5
2759 2758 -8.597405700000001E5
2759 2759 1.7159801400000001E6
2759 2760 -8.562395700000001E5
2760 2759 -8.597405700000001E5
2760 2760 1.7159801400000001E6
2760 2761 -8.562395700000001E5
2761 2760 -8.597405700000001E5
2761 2761 1.7159801400000001E6
2761 2762 -8.562395700000001E5
2762 2761 -8.597405700000001E5
2762 2762 1.7159801400000001E6
2762 2763 -8.562395700000001E5
2763 2762 -8.597405700000001E5
2763 2763 1.7159801400000001E6
2763 2764 -8.562395700000001E5
2764 2763 -8.597405700000001E5
2764 2764 1.7159801400000001E6
2764 2765 -8.562395700000001E5
2765 2764 -8.597405700000001E5
2765 2765 1.7159801400000001E6
2765 2766 -8.562395700000001E5
2766 2765 -8.597405700000001E5
2766 2766 1.7159801400000001E6
2766 2767 -8.562395700000001E5
2767 2766 -8.597405700000001E5
2767 2767 1.7159801400000001E6
2767 2768 -8.562395700000001E5
2768 2767 -8.597405700000001E5
2768 2768 1.7159801400000001E6
2768 2769 -8.562395700000001E5
2769 2768 -8.597405700000001E5
2769 2769 1.7159801400000001E6
2769 2770 -8.562395700000001E5
2770 2769 -8.597405700000001E5
2770 2770 1.7159801400000001E6
2770 2771 -8.562395700000001E5
2771 2770 -8.597405700000001E5
2771 2771 1.7159801400000001E6
2771 2772 -8.562395700000001E5
2772 2771 -8.597405700000001E5
2772 2772 1.7159801400000001E6
2772 2773 -8.562395700000001E5
2773 2772 -8.597405700000001E5
2773 2773 1.7159801400000001E6
2773 2774 -8.562395700000001E5
2774 2773 -8.597405700000001E5
2774 2774 1.7159801400000001E6
2774 2775 -8.562395700000001E5
2775 2774 -8.597405700000001E5
2775 2775 1.7159801400000001E6
2775 2776 -8.562395700000001E5
2776 2775 -8.597405700000001E5
2776 2776 1.7159801400000001E6
2776 2777 -8.562395700000001E5
2777 2776 -8.597405700000001E5
2777 2777 1.7159801400000001E6
2777 2778 -8.562395700000001E5
2778 2777 -8.597405700000001E5
2778 2778 1.7159801400000001E6
2778 2779 -8.562395700000001E5
2779 2778 -8.597405700000001E5
2779 2779 1.7159801400000001E6
2779 2780 -8.562395700000001E5
2780 2779 -8.597405700000001E5
2780 2780 1.7159801400000001E6
2780 2781 -8.562395700000001E5
2781 2780 -8.597405700000001E5
2781 2781 1.7159801400000001E6
2781 2782 -8.562395700000001E5
2782 2781 -8.597405700000001E5
2782 2782 1.7159801400000001E6
2782 2783 -8.562395700000001E5
2783 2782 -8.597405700000001E5
2783 2783 1.7159801400000001E6
2783 2784 -8.562395700000001E5
2784 2783 -8.597405700000001E5
2784 2784 1.7159801400000001E6
2784 2785 -8.562395700000001E5
2785 2784 -8.597405700000001E5
2785 2785 1.7159801400000001E6
2785 2786 -8.562395700000001E5
2786 2785 -8.597405700000001E5
2786 2786 1.7159801400000001E6
2786 2787 -8.562395700000001E5
2787 2786 -8.597405700000001E5
2787 2787 1.7159801400000001E6
2787 2788 -8.562395700000001E5
2788 2787 -8.597405700000001E5
2788 2788 1.7159801400000001E6
2788 2789 -8.562395700000001E5
2789 2788 -8.597405700000001E5
2789 2789 1.7159801400000001E6
2789 2790 -8.562395700000001E5
2790 2789 -8.597405700000001E5
2790 2790 1.7159801400000001E6
2790 2791 -8.562395700000001E5
2791 2790 -8.597405700000001E5
2791 2791 1.7159801400000001E6
2791 2792 -8.562395700000001E5
2792 2791 -8.597405700000001E5
2792 2792 1.7159801400000001E6
2792 2793 -8.562395700000001E5
2793 2792 -8.597405700000001E5
2793 2793 1.7159801400000001E6
2793 2794 -8.562395700000001E5
2794 2793 -8.597405700000001E5
2794 2794 1.7159801400000001E6
2794 2795 -8.562395700000001E5
2795 2794 -8.597405700000001E5
2795 2795 1.7159801400000001E6
2795 2796 -8.562395700000001E5
2796 2795 -8.597405700000001E5
2796 2796 1.7159801400000001E6
2796 2797 -8.562395700000001E5
2797 2796 -8.597405700000001E5
2797 2797 1.7159801400000001E6
2797 2798 -8.562395700000001E5
2798 2797 -8.597405700000001E5
2798 2798 1.7159801400000001E6
2798 2799 -8.562395700000001E5
2799 2798 -8.597405700000001E5
2799 2799 1.7159801400000001E6
2799 2800 -8.562395700000001E5
2800 2799 -8.597405700000001E5
2800 2800 1.7159801400000001E6
2800 2801 -8.562395700000001E5
2801 2800 -8.597405700000001E5
2801 2801 1.7159801400000001E6
2801 2802 -8.562395700000001E5
2802 2801 -8.597405700000001E5
2802 2802 1.7159801400000001E6
2802 2803 -8.562395700000001E5
2803 2802 -8.597405700000001E5
2803 2803 1.7159801400000001E6
2803 2804 -8.562395700000001E5
2804 2803 -8.597405700000001E5
2804 2804 1.7159801400000001E6
2804 2805 -8.562395700000001E5
2805 2804 -8.597405700000001E5
2805 2805 1.7159801400000001E6
2805 2806 -8.562395700000001E5
2806 2805 -8.597405700000001E5
2806 2806 1.7159801400000001E6
2806 2807 -8.562395700000001E5
2807 2806 -8.597405700000001E5
2807 2807 1.7159801400000001E6
2807 2808 -8.562395700000001E5
2808 2807 -8.597405700000001E5
2808 2808 1.7159801400000001E6
2808 2809 -8.562395700000001E5
2809 2808 -8.597405700000001E5
2809 2809 1.7159801400000001E6
2809 2810 -8.562395700000001E5
2810 2809 -8.597405700000001E5
2810 2810 1.7159801400000001E6
2810 2811 -8.562395700000001E5
2811 2810 -8.597405700000001E5
2811 2811 1.7159801400000001E6
2811 2812 -8.562395700000001E5
2812 2811 -8.597405700000001E5
2812 2812 1.7159801400000001E6
2812 2813 -8.562395700000001E5
2813 2812 -8.597405700000001E5
2813 2813 1.7159801400000001E6
2813 2814 -8.562395700000001E5
2814 2813 -8.597405700000001E5
2814 2814 1.7159801400000001E6
2814 2815 -8.562395700000001E5
2815 2814 -8.597405700000001E5
2815 2815 1.7159801400000001E6
2815 2816 -8.562395700000001E5
2816 2815 -8.597405700000001E5
2816 2816 1.7159801400000001E6
2816 2817 -8.562395700000001E5
2817 2816 -8.597405700000001E5
2817 2817 1.7159801400000001E6
2817 2818 -8.562395700000001E5
2818 2817 -8.597405700000001E5
2818 2818 1.7159801400000001E6
2818 2819 -8.562395700000001E5
2819 2818 -8.597405700000001E5
2819 2819 1.7159801400000001E6
2819 2820 -8.562395700000001E5
2820 2819 -8.597405700000001E5
2820 2820 1.7159801400000001E6
2820 2821 -8.562395700000001E5
2821 2820 -8.597405700000001E5
2821 2821 1.7159801400000001E6
2821 2822 -8.562395700000001E5
2822 2821 -8.597405700000001E5
2822 2822 1.7159801400000001E6
2822 2823 -8.562395700000001E5
2823 2822 -8.597405700000001E5
2823 2823 1.7159801400000001E6
2823 2824 -8.562395700000001E5
2824 2823 -8.597405700000001E5
2824 2824 1.7159801400000001E6
2824 2825 -8.562395700000001E5
2825 2824 -8.597405700000001E5
2825 2825 1.7159801400000001E6
2825 2826 -8.562395700000001E5
2826 2825 -8.597405700000001E5
2826 2826 1.7159801400000001E6
2826 2827 -8.562395700000001E5
2827 2826 -8.597405700000001E5
2827 2827 1.7159801400000001E6
2827 2828 -8.562395700000001E5
2828 2827 -8.597405700000001E5
2828 2828 1.7159801400000001E6
2828 2829 -8.562395700000001E5
2829 2828 -8.597405700000001E5
2829 2829 1.7159801400000001E6
2829 2830 -8.562395700000001E5
2830 2829 -8.597405700000001E5
2830 2830 1.7159801400000001E6
2830 2831 -8.562395700000001E5
2831 2830 -8.597405700000001E5
2831 2831 1.7159801400000001E6
2831 2832 -8.562395700000001E5
2832 2831 -8.597405700000001E5
2832 2832 1.7159801400000001E6
2832 2833 -8.562395700000001E5
2833 2832 -8.597405700000001E5
2833 2833 1.7159801400000001E6
2833 2834 -8.562395700000001E5
2834 2833 -8.597405700000001E5
2834 2834 1.7159801400000001E6
2834 2835 -8.562395700000001E5
2835 2834 -8.597405700000001E5
2835 2835 1.7159801400000001E6
2835 2836 -8.562395700000001E5
2836 2835 -8.597405700000001E5
2836 2836 1.7159801400000001E6
2836 2837 -8.562395700000001E5
2837 2836 -8.597405700000001E5
2837 2837 1.7159801400000001E6
2837 2838 -8.562395700000001E5
2838 2837 -8.597405700000001E5
2838 2838 1.7159801400000001E6
2838 2839 -8.562395700000001E5
2839 2838 -8.597405700000001E5
2839 2839 1.7159801400000001E6
2839 2840 -8.562395700000001E5
2840 2839 -8.597405700000001E5
2840 2840 1.7159801400000001E6
2840 2841 -8.562395700000001E5
2841 2840 -8.597405700000001E5
2841 2841 1.7159801400000001E6
2841 2842 -8.562395700000001E5
2842 2841 -8.597405700000001E5
2842 2842 1.7159801400000001E6
2842 2843 -8.562395700000001E5
2843 2842 -8.597405700000001E5
2843 2843 1.7159801400000001E6
2843 2844 -8.562395700000001E5
2844 2843 -8.597405700000001E5
2844 2844 1.7159801400000001E6
2844 2845 -8.562395700000001E5
2845 2844 -8.597405700000001E5
2845 2845 1.7159801400000001E6
2845 2846 -8.562395700000001E5
2846 2845 -8.597405700000001E5
2846 2846 1.7159801400000001E6
2846 2847 -8.562395700000001E5
2847 2846 -8.597405700000001E5
2847 2847 1.7159801400000001E6
2847 2848 -8.562395700000001E5
2848 2847 -8.597405700000001E5
2848 2848 1.7159801400000001E6
2848 2849 -8.562395700000001E5
2849 2848 -8.597405700000001E5
2849 2849 1.7159801400000001E6
2849 2850 -8.562395700000001E5
2850 2849 -8.597405700000001E5
2850 2850 1.7159801400000001E6
2850 2851 -8.562395700000001E5
2851 2850 -8.597405700000001E5
2851 2851 1.7159801400000001E6
2851 2852 -8.562395700000001E5
2852 2851 -8.597405700000001E5
2852 2852 1.7159801400000001E6
2852 2853 -8.562395700000001E5
2853 2852 -8.597405700000001E5
2853 2853 1.7159801400000001E6
2853 2854 -8.562395700000001E5
2854 2853 -8.597405700000001E5
2854 2854 1.7159801400000001E6
2854 2855 -8.562395700000001E5
2855 2854 -8.597405700000001E5
2855 2855 1.7159801400000001E6
2855 2856 -8.562395700000001E5
2856 2855 -8.597405700000001E5
2856 2856 1.7159801400000001E6
2856 2857 -8.562395700000001E5
2857 2856 -8.597405700000001E5
2857 2857 1.7159801400000001E6
2857 2858 -8.562395700000001E5
2858 2857 -8.597405700000001E5
2858 2858 1.7159801400000001E6
2858 2859 -8.562395700000001E5
2859 2858 -8.597405700000001E5
2859 2859 1.7159801400000001E6
2859 2860 -8.562395700000001E5
2860 2859 -8.597405700000001E5
2860 2860 1.7159801400000001E6
2860 2861 -8.562395700000001E5
2861 2860 -8.597405700000001E5
2861 2861 1.7159801400000001E6
2861 2862 -8.562395700000001E5
2862 2861 -8.597405700000001E5
2862 2862 1.7159801400000001E6
2862 2863 -8.562395700000001E5
2863 2862 -8.597405700000001E5
2863 2863 1.7159801400000001E6
2863 2864 -8.562395700000001E5
2864 2863 -8.597405700000001E5
2864 2864 1.7159801400000001E6
2864 2865 -8.562395700000001E5
2865 2864 -8.597405700000001E5
2865 2865 1.7159801400000001E6
2865 2866 -8.562395700000001E5
2866 2865 -8.597405700000001E5
2866 2866 1.7159801400000001E6
2866 2867 -8.562395700000001E5
2867 2866 -8.597405700000001E5
2867 2867 1.7159801400000001E6
2867 2868 -8.562395700000001E5
2868 2867 -8.597405700000001E5
2868 2868 1.7159801400000001E6
2868 2869 -8.562395700000001E5
2869 2868 -8.597405700000001E5
2869 2869 1.7159801400000001E6
2869 2870 -8.562395700000001E5
2870 2869 -8.597405700000001E5
2870 2870 1.7159801400000001E6
2870 2871 -8.562395700000001E5
2871 2870 -8.597405700000001E5
2871 2871 1.7159801400000001E6
2871 2872 -8.562395700000001E5
2872 2871 -8.597405700000001E5
2872 2872 1.7159801400000001E6
2872 2873 -8.562395700000001E5
2873 2872 -8.597405700000001E5
2873 2873 1.7159801400000001E6
2873 2874 -8.562395700000001E5
2874 2873 -8.597405700000001E5
2874 2874 1.7159801400000001E6
2874 2875 -8.562395700000001E5
2875 2874 -8.597405700000001E5
2875 2875 1.7159801400000001E6
2875 2876 -8.562395700000001E5
2876 2875 -8.597405700000001E5
2876 2876 1.7159801400000001E6
2876 2877 -8.562395700000001E5
2877 2876 -8.597405700000001E5
2877 2877 1.7159801400000001E6
2877 2878 -8.562395700000001E5
2878 2877 -8.597405700000001E5
2878 2878 1.7159801400000001E6
2878 2879 -8.562395700000001E5
2879 2878 -8.597405700000001E5
2879 2879 1.7159801400000001E6
2879 2880 -8.562395700000001E5
2880 2879 -8.597405700000001E5
2880 2880 1.7159801400000001E6
2880 2881 -8.562395700000001E5
2881 2880 -8.597405700000001E5
2881 2881 1.7159801400000001E6
2881 2882 -8.562395700000001E5
2882 2881 -8.597405700000001E5
2882 2882 1.7159801400000001E6
2882 2883 -8.562395700000001E5
2883 2882 -8.597405700000001E5
2883 2883 1.7159801400000001E6
2883 2884 -8.562395700000001E5
2884 2883 -8.597405700000001E5
2884 2884 1.7159801400000001E6
2884 2885 -8.562395700000001E5
2885 2884 -8.597405700000001E5
2885 2885 1.7159801400000001E6
2885 2886 -8.562395700000001E5
2886 2885 -8.597405700000001E5
2886 2886 1.7159801400000001E6
2886 2887 -8.562395700000001E5
2887 2886 -8.597405700000001E5
2887 2887 1.7159801400000001E6
2887 2888 -8.562395700000001E5
2888 2887 -8.597405700000001E5
2888 2888 1.7159801400000001E6
2888 2889 -8.562395700000001E5
2889 2888 -8.597405700000001E5
2889 2889 1.7159801400000001E6
2889 2890 -8.562395700000001E5
2890 2889 -8.597405700000001E5
2890 2890 1.7159801400000001E6
2890 2891 -8.562395700000001E5
2891 2890 -8.597405700000001E5
2891 2891 1.7159801400000001E6
2891 2892 -8.562395700000001E5
2892 2891 -8.597405700000001E5
2892 2892 1.7159801400000001E6
2892 2893 -8.562395700000001E5
2893 2892 -8.597405700000001E5
2893 2893 1.7159801400000001E6
2893 2894 -8.562395700000001E5
2894 2893 -8.597405700000001E5
2894 2894 1.7159801400000001E6
2894 2895 -8.562395700000001E5
2895 2894 -8.597405700000001E5
2895 2895 1.7159801400000001E6
2895 2896 -8.562395700000001E5
2896 2895 -8.597405700000001E5
2896 2896 1.7159801400000001E6
2896 2897 -8.562395700000001E5
2897 2896 -8.597405700000001E5
2897 2897 1.7159801400000001E6
2897 2898 -8.562395700000001E5
2898 2897 -8.597405700000001E5
2898 2898 1.7159801400000001E6
2898 2899 -8.562395700000001E5
2899 2898 -8.597405700000001E5
2899 2899 1.7159801400000001E6
2899 2900 -8.562395700000001E5
2900 2899 -8.597405700000001E5
2900 2900 1.7159801400000001E6
2900 2901 -8.562395700000001E5
2901 2900 -8.597405700000001E5
2901 2901 1.7159801400000001E6
2901 2902 -8.562395700000001E5
2902 2901 -8.597405700000001E5
2902 2902 1.7159801400000001E6
2902 2903 -8.562395700000001E5
2903 2902 -8.597405700000001E5
2903 2903 1.7159801400000001E6
2903 2904 -8.562395700000001E5
2904 2903 -8.597405700000001E5
2904 2904 1.7159801400000001E6
2904 2905 -8.562395700000001E5
2905 2904 -8.597405700000001E5
2905 2905 1.7159801400000001E6
2905 2906 -8.562395700000001E5
2906 2905 -8.597405700000001E5
2906 2906 1.7159801400000001E6
2906 2907 -8.562395700000001E5
2907 2906 -8.597405700000001E5
2907 2907 1.7159801400000001E6
2907 2908 -8.562395700000001E5
2908 2907 -8.597405700000001E5
2908 2908 1.7159801400000001E6
2908 2909 -8.562395700000001E5
2909 2908 -8.597405700000001E5
2909 2909 1.7159801400000001E6
2909 2910 -8.562395700000001E5
2910 2909 -8.597405700000001E5
2910 2910 1.7159801400000001E6
2910 2911 -8.562395700000001E5
2911 2910 -8.597405700000001E5
2911 2911 1.7159801400000001E6
2911 2912 -8.562395700000001E5
2912 2911 -8.597405700000001E5
2912 2912 1.7159801400000001E6
2912 2913 -8.562395700000001E5
2913 2912 -8.597405700000001E5
2913 2913 1.7159801400000001E6
2913 2914 -8.562395700000001E5
2914 2913 -8.597405700000001E5
2914 2914 1.7159801400000001E6
2914 2915 -8.562395700000001E5
2915 2914 -8.597405700000001E5
2915 2915 1.7159801400000001E6
2915 2916 -8.562395700000001E5
2916 2915 -8.597405700000001E5
2916 2916 1.7159801400000001E6
2916 2917 -8.562395700000001E5
2917 2916 -8.597405700000001E5
2917 2917 1.7159801400000001E6
2917 2918 -8.562395700000001E5
2918 2917 -8.597405700000001E5
2918 2918 1.7159801400000001E6
2918 2919 -8.562395700000001E5
2919 2918 -8.597405700000001E5
2919 2919 1.7159801400000001E6
2919 2920 -8.562395700000001E5
2920 2919 -8.597405700000001E5
2920 2920 1.7159801400000001E6
2920 2921 -8.562395700000001E5
2921 2920 -8.597405700000001E5
2921 2921 1.7159801400000001E6
2921 2922 -8.562395700000001E5
2922 2921 -8.597405700000001E5
2922 2922 1.7159801400000001E6
2922 2923 -8.562395700000001E5
2923 2922 -8.597405700000001E5
2923 2923 1.7159801400000001E6
2923 2924 -8.562395700000001E5
2924 2923 -8.597405700000001E5
2924 2924 1.7159801400000001E6
2924 2925 -8.562395700000001E5
2925 2924 -8.597405700000001E5
2925 2925 1.7159801400000001E6
2925 2926 -8.562395700000001E5
2926 2925 -8.597405700000001E5
2926 2926 1.7159801400000001E6
2926 2927 -8.562395700000001E5
2927 2926 -8.597405700000001E5
2927 2927 1.7159801400000001E6
2927 2928 -8.562395700000001E5
2928 2927 -8.597405700000001E5
2928 2928 1.7159801400000001E6
2928 2929 -8.562395700000001E5
2929 2928 -8.597405700000001E5
2929 2929 1.7159801400000001E6
2929 2930 -8.562395700000001E5
2930 2929 -8.597405700000001E5
2930 2930 1.7159801400000001E6
2930 2931 -8.562395700000001E5
2931 2930 -8.597405700000001E5
2931 2931 1.7159801400000001E6
2931 2932 -8.562395700000001E5
2932 2931 -8.597405700000001E5
2932 2932 1.7159801400000001E6
2932 2933 -8.562395700000001E5
2933 2932 -8.597405700000001E5
2933 2933 1.7159801400000001E6
2933 2934 -8.562395700000001E5
2934 2933 -8.597405700000001E5
2934 2934 1.7159801400000001E6
2934 2935 -8.562395700000001E5
2935 2934 -8.597405700000001E5
2935 2935 1.7159801400000001E6
2935 2936 -8.562395700000001E5
2936 2935 -8.597405700000001E5
2936 2936 1.7159801400000001E6
2936 2937 -8.562395700000001E5
2937 2936 -8.597405700000001E5
2937 2937 1.7159801400000001E6
2937 2938 -8.562395700000001E5
2938 2937 -8.597405700000001E5
2938 2938 1.7159801400000001E6
2938 2939 -8.562395700000001E5
2939 2938 -8.597405700000001E5
2939 2939 1.7159801400000001E6
2939 2940 -8.562395700000001E5
2940 2939 -8.597405700000001E5
2940 2940 1.7159801400000001E6
2940 2941 -8.562395700000001E5
2941 2940 -8.597405700000001E5
2941 2941 1.7159801400000001E6
2941 2942 -8.562395700000001E5
2942 2941 -8.597405700000001E5
2942 2942 1.7159801400000001E6
2942 2943 -8.562395700000001E5
2943 2942 -8.597405700000001E5
2943 2943 1.7159801400000001E6
2943 2944 -8.562395700000001E5
2944 2943 -8.597405700000001E5
2944 2944 1.7159801400000001E6
2944 2945 -8.562395700000001E5
2945 2944 -8.597405700000001E5
2945 2945 1.7159801400000001E6
2945 2946 -8.562395700000001E5
2946 2945 -8.597405700000001E5
2946 2946 1.7159801400000001E6
2946 2947 -8.562395700000001E5
2947 2946 -8.597405700000001E5
2947 2947 1.7159801400000001E6
2947 2948 -8.562395700000001E5
2948 2947 -8.597405700000001E5
2948 2948 1.7159801400000001E6
2948 2949 -8.562395700000001E5
2949 2948 -8.597405700000001E5
2949 2949 1.7159801400000001E6
2949 2950 -8.562395700000001E5
2950 2949 -8.597405700000001E5
2950 2950 1.7159801400000001E6
2950 2951 -8.562395700000001E5
2951 2950 -8.597405700000001E5
2951 2951 1.7159801400000001E6
2951 2952 -8.562395700000001E5
2952 2951 -8.597405700000001E5
2952 2952 1.7159801400000001E6
2952 2953 -8.562395700000001E5
2953 2952 -8.597405700000001E5
2953 2953 1.7159801400000001E6
2953 2954 -8.562395700000001E5
2954 2953 -8.597405700000001E5
2954 2954 1.7159801400000001E6
2954 2955 -8.562395700000001E5
2955 2954 -8.597405700000001E5
2955 2955 1.7159801400000001E6
2955 2956 -8.562395700000001E5
2956 2955 -8.597405700000001E5
2956 2956 1.7159801400000001E6
2956 2957 -8.562395700000001E5
2957 2956 -8.597405700000001E5
2957 2957 1.7159801400000001E6
2957 2958 -8.562395700000001E5
2958 2957 -8.597405700000001E5
2958 2958 1.7159801400000001E6
2958 2959 -8.562395700000001E5
2959 2958 -8.597405700000001E5
2959 2959 1.7159801400000001E6
2959 2960 -8.562395700000001E5
2960 2959 -8.597405700000001E5
2960 2960 1.7159801400000001E6
2960 2961 -8.562395700000001E5
2961 2960 -8.597405700000001E5
2961 2961 1.7159801400000001E6
2961 2962 -8.562395700000001E5
2962 2961 -8.597405700000001E5
2962 2962 1.7159801400000001E6
2962 2963 -8.562395700000001E5
2963 2962 -8.597405700000001E5
2963 2963 1.7159801400000001E6
2963 2964 -8.562395700000001E5
2964 2963 -8.597405700000001E5
2964 2964 1.7159801400000001E6
2964 2965 -8.562395700000001E5
2965 2964 -8.597405700000001E5
2965 2965 1.7159801400000001E6
2965 2966 -8.562395700000001E5
2966 2965 -8.597405700000001E5
2966 2966 1.7159801400000001E6
2966 2967 -8.562395700000001E5
2967 2966 -8.597405700000001E5
2967 2967 1.7159801400000001E6
2967 2968 -8.562395700000001E5
2968 2967 -8.597405700000001E5
2968 2968 1.7159801400000001E6
2968 2969 -8.562395700000001E5
2969 2968 -8.597405700000001E5
2969 2969 1.7159801400000001E6
2969 2970 -8.562395700000001E5
2970 2969 -8.597405700000001E5
2970 2970 1.7159801400000001E6
2970 2971 -8.562395700000001E5
2971 2970 -8.597405700000001E5
2971 2971 1.7159801400000001E6
2971 2972 -8.562395700000001E5
2972 2971 -8.597405700000001E5
2972 2972 1.7159801400000001E6
2972 2973 -8.562395700000001E5
2973 2972 -8.597405700000001E5
2973 2973 1.7159801400000001E6
2973 2974 -8.562395700000001E5
2974 2973 -8.597405700000001E5
2974 2974 1.7159801400000001E6
2974 2975 -8.562395700000001E5
2975 2974 -8.597405700000001E5
2975 2975 1.7159801400000001E6
2975 2976 -8.562395700000001E5
2976 2975 -8.597405700000001E5
2976 2976 1.7159801400000001E6
2976 2977 -8.562395700000001E5
2977 2976 -8.597405700000001E5
2977 2977 1.7159801400000001E6
2977 2978 -8.562395700000001E5
2978 2977 -8.597405700000001E5
2978 2978 1.7159801400000001E6
2978 2979 -8.562395700000001E5
2979 2978 -8.597405700000001E5
2979 2979 1.7159801400000001E6
2979 2980 -8.562395700000001E5
2980 2979 -8.597405700000001E5
2980 2980 1.7159801400000001E6
2980 2981 -8.562395700000001E5
2981 2980 -8.597405700000001E5
2981 2981 1.7159801400000001E6
2981 2982 -8.562395700000001E5
2982 2981 -8.597405700000001E5
2982 2982 1.7159801400000001E6
2982 2983 -8.562395700000001E5
2983 2982 -8.597405700000001E5
2983 2983 1.7159801400000001E6
2983 2984 -8.562395700000001E5
2984 2983 -8.597405700000001E5
2984 2984 1.7159801400000001E6
2984 2985 -8.562395700000001E5
2985 2984 -8.597405700000001E5
2985 2985 1.7159801400000001E6
2985 2986 -8.562395700000001E5
2986 2985 -8.597405700000001E5
2986 2986 1.7159801400000001E6
2986 2987 -8.562395700000001E5
2987 2986 -8.597405700000001E5
2987 2987 1.7159801400000001E6
2987 2988 -8.562395700000001E5
2988 2987 -8.597405700000001E5
2988 2988 1.7159801400000001E6
2988 2989 -8.562395700000001E5
2989 2988 -8.597405700000001E5
2989 2989 1.7159801400000001E6
2989 2990 -8.562395700000001E5
2990 2989 -8.597405700000001E5
2990 2990 1.7159801400000001E6
2990 2991 -8.562395700000001E5
2991 2990 -8.597405700000001E5
2991 2991 1.7159801400000001E6
2991 2992 -8.562395700000001E5
2992 2991 -8.597405700000001E5
2992 2992 1.7159801400000001E6
2992 2993 -8.562395700000001E5
2993 2992 -8.597405700000001E5
2993 2993 1.7159801400000001E6
2993 2994 -8.562395700000001E5
2994 2993 -8.597405700000001E5
2994 2994 1.7159801400000001E6
2994 2995 -8.562395700000001E5
2995 2994 -8.597405700000001E5
2995 2995 1.7159801400000001E6
2995 2996 -8.562395700000001E5
2996 2995 -8.597405700000001E5
2996 2996 1.7159801400000001E6
2996 2997 -8.562395700000001E5
2997 2996 -8.597405700000001E5
2997 2997 1.7159801400000001E6
2997 2998 -8.562395700000001E5
2998 2997 -8.597405700000001E5
2998 2998 1.7159801400000001E6
2998 2999 -8.562395700000001E5
2999 2998 -8.597405700000001E5
2999 2999 1.7159801400000001E6
2999 3000 -8.562395700000001E5
3000 2999 -8.597405700000001E5
3000 3000 1.7159801400000001E6
3000 3001 -8.562395700000001E5
3001 3000 -8.597405700000001E5
3001 3001 1.7159801400000001E6
3001 3002 -8.562395700000001E5
3002 3001 -8.597405700000001E5
3002 3002 1.7159801400000001E6
3002 3003 -8.562395700000001E5
3003 3002 -8.597405700000001E5
3003 3003 1.7159801400000001E6
3003 3004 -8.562395700000001E5
3004 3003 -8.597405700000001E5
3004 3004 1.7159801400000001E6
3004 3005 -8.562395700000001E5
3005 3004 -8.597405700000001E5
3005 3005 1.7159801400000001E6
3005 3006 -8.562395700000001E5
3006 3005 -8.597405700000001E5
3006 3006 1.7159801400000001E6
3006 3007 -8.562395700000001E5
3007 3006 -8.597405700000001E5
3007 3007 1.7159801400000001E6
3007 3008 -8.562395700000001E5
3008 3007 -8.597405700000001E5
3008 3008 1.7159801400000001E6
3008 3009 -8.562395700000001E5
3009 3008 -8.597405700000001E5
3009 3009 1.7159801400000001E6
3009 3010 -8.562395700000001E5
3010 3009 -8.597405700000001E5
3010 3010 1.7159801400000001E6
3010 3011 -8.562395700000001E5
3011 3010 -8.597405700000001E5
3011 3011 1.7159801400000001E6
3011 3012 -8.562395700000001E5
3012 3011 -8.597405700000001E5
3012 3012 1.7159801400000001E6
3012 3013 -8.562395700000001E5
3013 3012 -8.597405700000001E5
3013 3013 1.7159801400000001E6
3013 3014 -8.562395700000001E5
3014 3013 -8.597405700000001E5
3014 3014 1.7159801400000001E6
3014 3015 -8.562395700000001E5
3015 3014 -8.597405700000001E5
3015 3015 1.7159801400000001E6
3015 3016 -8.562395700000001E5
3016 3015 -8.597405700000001E5
3016 3016 1.7159801400000001E6
3016 3017 -8.562395700000001E5
3017 3016 -8.597405700000001E5
3017 3017 1.7159801400000001E6
3017 3018 -8.562395700000001E5
3018 3017 -8.597405700000001E5
3018 3018 1.7159801400000001E6
3018 3019 -8.562395700000001E5
3019 3018 -8.597405700000001E5
3019 3019 1.7159801400000001E6
3019 3020 -8.562395700000001E5
3020 3019 -8.597405700000001E5
3020 3020 1.7159801400000001E6
3020 3021 -8.562395700000001E5
3021 3020 -8.597405700000001E5
3021 3021 1.7159801400000001E6
3021 3022 -8.562395700000001E5
3022 3021 -8.597405700000001E5
3022 3022 1.7159801400000001E6
3022 3023 -8.562395700000001E5
3023 3022 -8.597405700000001E5
3023 3023 1.7159801400000001E6
3023 3024 -8.562395700000001E5
3024 3023 -8.597405700000001E5
3024 3024 1.7159801400000001E6
3024 3025 -8.562395700000001E5
3025 3024 -8.597405700000001E5
3025 3025 1.7159801400000001E6
3025 3026 -8.562395700000001E5
3026 3025 -8.597405700000001E5
3026 3026 1.7159801400000001E6
3026 3027 -8.562395700000001E5
3027 3026 -8.597405700000001E5
3027 3027 1.7159801400000001E6
3027 3028 -8.562395700000001E5
3028 3027 -8.597405700000001E5
3028 3028 1.7159801400000001E6
3028 3029 -8.562395700000001E5
3029 3028 -8.597405700000001E5
3029 3029 1.7159801400000001E6
3029 3030 -8.562395700000001E5
3030 3029 -8.597405700000001E5
3030 3030 1.7159801400000001E6
3030 3031 -8.562395700000001E5
3031 3030 -8.597405700000001E5
3031 3031 1.7159801400000001E6
3031 3032 -8.562395700000001E5
3032 3031 -8.597405700000001E5
3032 3032 1.7159801400000001E6
3032 3033 -8.562395700000001E5
3033 3032 -8.597405700000001E5
3033 3033 1.7159801400000001E6
3033 3034 -8.562395700000001E5
3034 3033 -8.597405700000001E5
3034 3034 1.7159801400000001E6
3034 3035 -8.562395700000001E5
3035 3034 -8.597405700000001E5
3035 3035 1.7159801400000001E6
3035 3036 -8.562395700000001E5
3036 3035 -8.597405700000001E5
3036 3036 1.7159801400000001E6
3036 3037 -8.562395700000001E5
3037 3036 -8.597405700000001E5
3037 3037 1.7159801400000001E6
3037 3038 -8.562395700000001E5
3038 3037 -8.597405700000001E5
3038 3038 1.7159801400000001E6
3038 3039 -8.562395700000001E5
3039 3038 -8.597405700000001E5
3039 3039 1.7159801400000001E6
3039 3040 -8.562395700000001E5
3040 3039 -8.597405700000001E5
3040 3040 1.7159801400000001E6
3040 3041 -8.562395700000001E5
3041 3040 -8.597405700000001E5
3041 3041 1.7159801400000001E6
3041 3042 -8.562395700000001E5
3042 3041 -8.597405700000001E5
3042 3042 1.7159801400000001E6
3042 3043 -8.562395700000001E5
3043 3042 -8.597405700000001E5
3043 3043 1.7159801400000001E6
3043 3044 -8.562395700000001E5
3044 3043 -8.597405700000001E5
3044 3044 1.7159801400000001E6
3044 3045 -8.562395700000001E5
3045 3044 -8.597405700000001E5
3045 3045 1.7159801400000001E6
3045 3046 -8.562395700000001E5
3046 3045 -8.597405700000001E5
3046 3046 1.7159801400000001E6
3046 3047 -8.562395700000001E5
3047 3046 -8.597405700000001E5
3047 3047 1.7159801400000001E6
3047 3048 -8.562395700000001E5
3048 3047 -8.597405700000001E5
3048 3048 1.7159801400000001E6
3048 3049 -8.562395700000001E5
3049 3048 -8.597405700000001E5
3049 3049 1.7159801400000001E6
3049 3050 -8.562395700000001E5
3050 3049 -8.597405700000001E5
3050 3050 1.7159801400000001E6
3050 3051 -8.562395700000001E5
3051 3050 -8.597405700000001E5
3051 3051 1.7159801400000001E6
3051 3052 -8.562395700000001E5
3052 3051 -8.597405700000001E5
3052 3052 1.7159801400000001E6
3052 3053 -8.562395700000001E5
3053 3052 -8.597405700000001E5
3053 3053 1.7159801400000001E6
3053 3054 -8.562395700000001E5
3054 3053 -8.597405700000001E5
3054 3054 1.7159801400000001E6
3054 3055 -8.562395700000001E5
3055 3054 -8.597405700000001E5
3055 3055 1.7159801400000001E6
3055 3056 -8.562395700000001E5
3056 3055 -8.597405700000001E5
3056 3056 1.7159801400000001E6
3056 3057 -8.562395700000001E5
3057 3056 -8.597405700000001E5
3057 3057 1.7159801400000001E6
3057 3058 -8.562395700000001E5
3058 3057 -8.597405700000001E5
3058 3058 1.7159801400000001E6
3058 3059 -8.562395700000001E5
3059 3058 -8.597405700000001E5
3059 3059 1.7159801400000001E6
3059 3060 -8.562395700000001E5
3060 3059 -8.597405700000001E5
3060 3060 1.7159801400000001E6
3060 3061 -8.562395700000001E5
3061 3060 -8.597405700000001E5
3061 3061 1.7159801400000001E6
3061 3062 -8.562395700000001E5
3062 3061 -8.597405700000001E5
3062 3062 1.7159801400000001E6
3062 3063 -8.562395700000001E5
3063 3062 -8.597405700000001E5
3063 3063 1.7159801400000001E6
3063 3064 -8.562395700000001E5
3064 3063 -8.597405700000001E5
3064 3064 1.7159801400000001E6
3064 3065 -8.562395700000001E5
3065 3064 -8.597405700000001E5
3065 3065 1.7159801400000001E6
3065 3066 -8.562395700000001E5
3066 3065 -8.597405700000001E5
3066 3066 1.7159801400000001E6
3066 3067 -8.562395700000001E5
3067 3066 -8.597405700000001E5
3067 3067 1.7159801400000001E6
3067 3068 -8.562395700000001E5
3068 3067 -8.597405700000001E5
3068 3068 1.7159801400000001E6
3068 3069 -8.562395700000001E5
3069 3068 -8.597405700000001E5
3069 3069 1.7159801400000001E6
3069 3070 -8.562395700000001E5
3070 3069 -8.597405700000001E5
3070 3070 1.7159801400000001E6
3070 3071 -8.562395700000001E5
3071 3070 -8.597405700000001E5
3071 3071 1.7159801400000001E6
3071 3072 -8.562395700000001E5
3072 3071 -8.597405700000001E5
3072 3072 1.7159801400000001E6
3072 3073 -8.562395700000001E5
3073 3072 -8.597405700000001E5
3073 3073 1.7159801400000001E6
3073 3074 -8.562395700000001E5
3074 3073 -8.597405700000001E5
3074 3074 1.7159801400000001E6
3074 3075 -8.562395700000001E5
3075 3074 -8.597405700000001E5
3075 3075 1.7159801400000001E6
3075 3076 -8.562395700000001E5
3076 3075 -8.597405700000001E5
3076 3076 1.7159801400000001E6
3076 3077 -8.562395700000001E5
3077 3076 -8.597405700000001E5
3077 3077 1.7159801400000001E6
3077 3078 -8.562395700000001E5
3078 3077 -8.597405700000001E5
3078 3078 1.7159801400000001E6
3078 3079 -8.562395700000001E5
3079 3078 -8.597405700000001E5
3079 3079 1.7159801400000001E6
3079 3080 -8.562395700000001E5
3080 3079 -8.597405700000001E5
3080 3080 1.7159801400000001E6
3080 3081 -8.562395700000001E5
3081 3080 -8.597405700000001E5
3081 3081 1.7159801400000001E6
3081 3082 -8.562395700000001E5
3082 3081 -8.597405700000001E5
3082 3082 1.7159801400000001E6
3082 3083 -8.562395700000001E5
3083 3082 -8.597405700000001E5
3083 3083 1.7159801400000001E6
3083 3084 -8.562395700000001E5
3084 3083 -8.597405700000001E5
3084 3084 1.7159801400000001E6
3084 3085 -8.562395700000001E5
3085 3084 -8.597405700000001E5
3085 3085 1.7159801400000001E6
3085 3086 -8.562395700000001E5
3086 3085 -8.597405700000001E5
3086 3086 1.7159801400000001E6
3086 3087 -8.562395700000001E5
3087 3086 -8.597405700000001E5
3087 3087 1.7159801400000001E6
3087 3088 -8.562395700000001E5
3088 3087 -8.597405700000001E5
3088 3088 1.7159801400000001E6
3088 3089 -8.562395700000001E5
3089 3088 -8.597405700000001E5
3089 3089 1.7159801400000001E6
3089 3090 -8.562395700000001E5
3090 3089 -8.597405700000001E5
3090 3090 1.7159801400000001E6
3090 3091 -8.562395700000001E5
3091 3090 -8.597405700000001E5
3091 3091 1.7159801400000001E6
3091 3092 -8.562395700000001E5
3092 3091 -8.597405700000001E5
3092 3092 1.7159801400000001E6
3092 3093 -8.562395700000001E5
3093 3092 -8.597405700000001E5
3093 3093 1.7159801400000001E6
3093 3094 -8.562395700000001E5
3094 3093 -8.597405700000001E5
3094 3094 1.7159801400000001E6
3094 3095 -8.562395700000001E5
3095 3094 -8.597405700000001E5
3095 3095 1.7159801400000001E6
3095 3096 -8.562395700000001E5
3096 3095 -8.597405700000001E5
3096 3096 1.7159801400000001E6
3096 3097 -8.562395700000001E5
3097 3096 -8.597405700000001E5
3097 3097 1.7159801400000001E6
3097 3098 -8.562395700000001E5
3098 3097 -8.597405700000001E5
3098 3098 1.7159801400000001E6
3098 3099 -8.562395700000001E5
3099 3098 -8.597405700000001E5
3099 3099 1.7159801400000001E6
3099 3100 -8.562395700000001E5
3100 3099 -8.597405700000001E5
3100 3100 1.7159801400000001E6
3100 3101 -8.562395700000001E5
3101 3100 -8.597405700000001E5
3101 3101 1.7159801400000001E6
3101 3102 -8.562395700000001E5
3102 3101 -8.597405700000001E5
3102 3102 1.7159801400000001E6
3102 3103 -8.562395700000001E5
3103 3102 -8.597405700000001E5
3103 3103 1.7159801400000001E6
3103 3104 -8.562395700000001E5
3104 3103 -8.597405700000001E5
3104 3104 1.7159801400000001E6
3104 3105 -8.562395700000001E5
3105 3104 -8.597405700000001E5
3105 3105 1.7159801400000001E6
3105 3106 -8.562395700000001E5
3106 3105 -8.597405700000001E5
3106 3106 1.7159801400000001E6
3106 3107 -8.562395700000001E5
3107 3106 -8.597405700000001E5
3107 3107 1.7159801400000001E6
3107 3108 -8.562395700000001E5
3108 3107 -8.597405700000001E5
3108 3108 1.7159801400000001E6
3108 3109 -8.562395700000001E5
3109 3108 -8.597405700000001E5
3109 3109 1.7159801400000001E6
3109 3110 -8.562395700000001E5
3110 3109 -8.597405700000001E5
3110 3110 1.7159801400000001E6
3110 3111 -8.562395700000001E5
3111 3110 -8.597405700000001E5
3111 3111 1.7159801400000001E6
3111 3112 -8.562395700000001E5
3112 3111 -8.597405700000001E5
3112 3112 1.7159801400000001E6
3112 3113 -8.562395700000001E5
3113 3112 -8.597405700000001E5
3113 3113 1.7159801400000001E6
3113 3114 -8.562395700000001E5
3114 3113 -8.597405700000001E5
3114 3114 1.7159801400000001E6
3114 3115 -8.562395700000001E5
3115 3114 -8.597405700000001E5
3115 3115 1.7159801400000001E6
3115 3116 -8.562395700000001E5
3116 3115 -8.597405700000001E5
3116 3116 1.7159801400000001E6
3116 3117 -8.562395700000001E5
3117 3116 -8.597405700000001E5
3117 3117 1.7159801400000001E6
3117 3118 -8.562395700000001E5
3118 3117 -8.597405700000001E5
3118 3118 1.7159801400000001E6
3118 3119 -8.562395700000001E5
3119 3118 -8.597405700000001E5
3119 3119 1.7159801400000001E6
3119 3120 -8.562395700000001E5
3120 3119 -8.597405700000001E5
3120 3120 1.7159801400000001E6
3120 3121 -8.562395700000001E5
3121 3120 -8.597405700000001E5
3121 3121 1.7159801400000001E6
3121 3122 -8.562395700000001E5
3122 3121 -8.597405700000001E5
3122 3122 1.7159801400000001E6
3122 3123 -8.562395700000001E5
3123 3122 -8.597405700000001E5
3123 3123 1.7159801400000001E6
3123 3124 -8.562395700000001E5
3124 3123 -8.597405700000001E5
3124 3124 1.7159801400000001E6
3124 3125 -8.562395700000001E5
3125 3124 -8.597405700000001E5
3125 3125 1.7159801400000001E6
3125 3126 -8.562395700000001E5
3126 3125 -8.597405700000001E5
3126 3126 1.7159801400000001E6
3126 3127 -8.562395700000001E5
3127 3126 -8.597405700000001E5
3127 3127 1.7159801400000001E6
3127 3128 -8.562395700000001E5
3128 3127 -8.597405700000001E5
3128 3128 1.7159801400000001E6
3128 3129 -8.562395700000001E5
3129 3128 -8.597405700000001E5
3129 3129 1.7159801400000001E6
3129 3130 -8.562395700000001E5
3130 3129 -8.597405700000001E5
3130 3130 1.7159801400000001E6
3130 3131 -8.562395700000001E5
3131 3130 -8.597405700000001E5
3131 3131 1.7159801400000001E6
3131 3132 -8.562395700000001E5
3132 3131 -8.597405700000001E5
3132 3132 1.7159801400000001E6
3132 3133 -8.562395700000001E5
3133 3132 -8.597405700000001E5
3133 3133 1.7159801400000001E6
3133 3134 -8.562395700000001E5
3134 3133 -8.597405700000001E5
3134 3134 1.7159801400000001E6
3134 3135 -8.562395700000001E5
3135 3134 -8.597405700000001E5
3135 3135 1.7159801400000001E6
3135 3136 -8.562395700000001E5
3136 3135 -8.597405700000001E5
3136 3136 1.7159801400000001E6
3136 3137 -8.562395700000001E5
3137 3136 -8.597405700000001E5
3137 3137 1.7159801400000001E6
3137 3138 -8.562395700000001E5
3138 3137 -8.597405700000001E5
3138 3138 1.7159801400000001E6
3138 3139 -8.562395700000001E5
3139 3138 -8.597405700000001E5
3139 3139 1.7159801400000001E6
3139 3140 -8.562395700000001E5
3140 3139 -8.597405700000001E5
3140 3140 1.7159801400000001E6
3140 3141 -8.562395700000001E5
3141 3140 -8.597405700000001E5
3141 3141 1.7159801400000001E6
3141 3142 -8.562395700000001E5
3142 3141 -8.597405700000001E5
3142 3142 1.7159801400000001E6
3142 3143 -8.562395700000001E5
3143 3142 -8.597405700000001E5
3143 3143 1.7159801400000001E6
3143 3144 -8.562395700000001E5
3144 3143 -8.597405700000001E5
3144 3144 1.7159801400000001E6
3144 3145 -8.562395700000001E5
3145 3144 -8.597405700000001E5
3145 3145 1.7159801400000001E6
3145 3146 -8.562395700000001E5
3146 3145 -8.597405700000001E5
3146 3146 1.7159801400000001E6
3146 3147 -8.562395700000001E5
3147 3146 -8.597405700000001E5
3147 3147 1.7159801400000001E6
3147 3148 -8.562395700000001E5
3148 3147 -8.597405700000001E5
3148 3148 1.7159801400000001E6
3148 3149 -8.562395700000001E5
3149 3148 -8.597405700000001E5
3149 3149 1.7159801400000001E6
3149 3150 -8.562395700000001E5
3150 3149 -8.597405700000001E5
3150 3150 1.7159801400000001E6
3150 3151 -8.562395700000001E5
3151 3150 -8.597405700000001E5
3151 3151 1.7159801400000001E6
3151 3152 -8.562395700000001E5
3152 3151 -8.597405700000001E5
3152 3152 1.7159801400000001E6
3152 3153 -8.562395700000001E5
3153 3152 -8.597405700000001E5
3153 3153 1.7159801400000001E6
3153 3154 -8.562395700000001E5
3154 3153 -8.597405700000001E5
3154 3154 1.7159801400000001E6
3154 3155 -8.562395700000001E5
3155 3154 -8.597405700000001E5
3155 3155 1.7159801400000001E6
3155 3156 -8.562395700000001E5
3156 3155 -8.597405700000001E5
3156 3156 1.7159801400000001E6
3156 3157 -8.562395700000001E5
3157 3156 -8.597405700000001E5
3157 3157 1.7159801400000001E6
3157 3158 -8.562395700000001E5
3158 3157 -8.597405700000001E5
3158 3158 1.7159801400000001E6
3158 3159 -8.562395700000001E5
3159 3158 -8.597405700000001E5
3159 3159 1.7159801400000001E6
3159 3160 -8.562395700000001E5
3160 3159 -8.597405700000001E5
3160 3160 1.7159801400000001E6
3160 3161 -8.562395700000001E5
3161 3160 -8.597405700000001E5
3161 3161 1.7159801400000001E6
3161 3162 -8.562395700000001E5
3162 3161 -8.597405700000001E5
3162 3162 1.7159801400000001E6
3162 3163 -8.562395700000001E5
3163 3162 -8.597405700000001E5
3163 3163 1.7159801400000001E6
3163 3164 -8.562395700000001E5
3164 3163 -8.597405700000001E5
3164 3164 1.7159801400000001E6
3164 3165 -8.562395700000001E5
3165 3164 -8.597405700000001E5
3165 3165 1.7159801400000001E6
3165 3166 -8.562395700000001E5
3166 3165 -8.597405700000001E5
3166 3166 1.7159801400000001E6
3166 3167 -8.562395700000001E5
3167 3166 -8.597405700000001E5
3167 3167 1.7159801400000001E6
3167 3168 -8.562395700000001E5
3168 3167 -8.597405700000001E5
3168 3168 1.7159801400000001E6
3168 3169 -8.562395700000001E5
3169 3168 -8.597405700000001E5
3169 3169 1.7159801400000001E6
3169 3170 -8.562395700000001E5
3170 3169 -8.597405700000001E5
3170 3170 1.7159801400000001E6
3170 3171 -8.562395700000001E5
3171 3170 -8.597405700000001E5
3171 3171 1.7159801400000001E6
3171 3172 -8.562395700000001E5
3172 3171 -8.597405700000001E5
3172 3172 1.7159801400000001E6
3172 3173 -8.562395700000001E5
3173 3172 -8.597405700000001E5
3173 3173 1.7159801400000001E6
3173 3174 -8.562395700000001E5
3174 3173 -8.597405700000001E5
3174 3174 1.7159801400000001E6
3174 3175 -8.562395700000001E5
3175 3174 -8.597405700000001E5
3175 3175 1.7159801400000001E6
3175 3176 -8.562395700000001E5
3176 3175 -8.597405700000001E5
3176 3176 1.7159801400000001E6
3176 3177 -8.562395700000001E5
3177 3176 -8.597405700000001E5
3177 3177 1.7159801400000001E6
3177 3178 -8.562395700000001E5
3178 3177 -8.597405700000001E5
3178 3178 1.7159801400000001E6
3178 3179 -8.562395700000001E5
3179 3178 -8.597405700000001E5
3179 3179 1.7159801400000001E6
3179 3180 -8.562395700000001E5
3180 3179 -8.597405700000001E5
3180 3180 1.7159801400000001E6
3180 3181 -8.562395700000001E5
3181 3180 -8.597405700000001E5
3181 3181 1.7159801400000001E6
3181 3182 -8.562395700000001E5
3182 3181 -8.597405700000001E5
3182 3182 1.7159801400000001E6
3182 3183 -8.562395700000001E5
3183 3182 -8.597405700000001E5
3183 3183 1.7159801400000001E6
3183 3184 -8.562395700000001E5
3184 3183 -8.597405700000001E5
3184 3184 1.7159801400000001E6
3184 3185 -8.562395700000001E5
3185 3184 -8.597405700000001E5
3185 3185 1.7159801400000001E6
3185 3186 -8.562395700000001E5
3186 3185 -8.597405700000001E5
3186 3186 1.7159801400000001E6
3186 3187 -8.562395700000001E5
3187 3186 -8.597405700000001E5
3187 3187 1.7159801400000001E6
3187 3188 -8.562395700000001E5
3188 3187 -8.597405700000001E5
3188 3188 1.7159801400000001E6
3188 3189 -8.562395700000001E5
3189 3188 -8.597405700000001E5
3189 3189 1.7159801400000001E6
3189 3190 -8.562395700000001E5
3190 3189 -8.597405700000001E5
3190 3190 1.7159801400000001E6
3190 3191 -8.562395700000001E5
3191 3190 -8.597405700000001E5
3191 3191 1.7159801400000001E6
3191 3192 -8.562395700000001E5
3192 3191 -8.597405700000001E5
3192 3192 1.7159801400000001E6
3192 3193 -8.562395700000001E5
3193 3192 -8.597405700000001E5
3193 3193 1.7159801400000001E6
3193 3194 -8.562395700000001E5
3194 3193 -8.597405700000001E5
3194 3194 1.7159801400000001E6
3194 3195 -8.562395700000001E5
3195 3194 -8.597405700000001E5
3195 3195 1.7159801400000001E6
3195 3196 -8.562395700000001E5
3196 3195 -8.597405700000001E5
3196 3196 1.7159801400000001E6
3196 3197 -8.562395700000001E5
3197 3196 -8.597405700000001E5
3197 3197 1.7159801400000001E6
3197 3198 -8.562395700000001E5
3198 3197 -8.597405700000001E5
3198 3198 1.7159801400000001E6
3198 3199 -8.562395700000001E5
3199 3198 -8.597405700000001E5
3199 3199 1.7159801400000001E6
3199 3200 -8.562395700000001E5
3200 3199 -8.597405700000001E5
3200 3200 1.7159801400000001E6
3200 3201 -8.562395700000001E5
3201 3200 -8.597405700000001E5
3201 3201 1.7159801400000001E6
3201 3202 -8.562395700000001E5
3202 3201 -8.597405700000001E5
3202 3202 1.7159801400000001E6
3202 3203 -8.562395700000001E5
3203 3202 -8.597405700000001E5
3203 3203 1.7159801400000001E6
3203 3204 -8.562395700000001E5
3204 3203 -8.597405700000001E5
3204 3204 1.7159801400000001E6
3204 3205 -8.562395700000001E5
3205 3204 -8.597405700000001E5
3205 3205 1.7159801400000001E6
3205 3206 -8.562395700000001E5
3206 3205 -8.597405700000001E5
3206 3206 1.7159801400000001E6
3206 3207 -8.562395700000001E5
3207 3206 -8.597405700000001E5
3207 3207 1.7159801400000001E6
3207 3208 -8.562395700000001E5
3208 3207 -8.597405700000001E5
3208 3208 1.7159801400000001E6
3208 3209 -8.562395700000001E5
3209 3208 -8.597405700000001E5
3209 3209 1.7159801400000001E6
3209 3210 -8.562395700000001E5
3210 3209 -8.597405700000001E5
3210 3210 1.7159801400000001E6
3210 3211 -8.562395700000001E5
3211 3210 -8.597405700000001E5
3211 3211 1.7159801400000001E6
3211 3212 -8.562395700000001E5
3212 3211 -8.597405700000001E5
3212 3212 1.7159801400000001E6
3212 3213 -8.562395700000001E5
3213 3212 -8.597405700000001E5
3213 3213 1.7159801400000001E6
3213 3214 -8.562395700000001E5
3214 3213 -8.597405700000001E5
3214 3214 1.7159801400000001E6
3214 3215 -8.562395700000001E5
3215 3214 -8.597405700000001E5
3215 3215 1.7159801400000001E6
3215 3216 -8.562395700000001E5
3216 3215 -8.597405700000001E5
3216 3216 1.7159801400000001E6
3216 3217 -8.562395700000001E5
3217 3216 -8.597405700000001E5
3217 3217 1.7159801400000001E6
3217 3218 -8.562395700000001E5
3218 3217 -8.597405700000001E5
3218 3218 1.7159801400000001E6
3218 3219 -8.562395700000001E5
3219 3218 -8.597405700000001E5
3219 3219 1.7159801400000001E6
3219 3220 -8.562395700000001E5
3220 3219 -8.597405700000001E5
3220 3220 1.7159801400000001E6
3220 3221 -8.562395700000001E5
3221 3220 -8.597405700000001E5
3221 3221 1.7159801400000001E6
3221 3222 -8.562395700000001E5
3222 3221 -8.597405700000001E5
3222 3222 1.7159801400000001E6
3222 3223 -8.562395700000001E5
3223 3222 -8.597405700000001E5
3223 3223 1.7159801400000001E6
3223 3224 -8.562395700000001E5
3224 3223 -8.597405700000001E5
3224 3224 1.7159801400000001E6
3224 3225 -8.562395700000001E5
3225 3224 -8.597405700000001E5
3225 3225 1.7159801400000001E6
3225 3226 -8.562395700000001E5
3226 3225 -8.597405700000001E5
3226 3226 1.7159801400000001E6
3226 3227 -8.562395700000001E5
3227 3226 -8.597405700000001E5
3227 3227 1.7159801400000001E6
3227 3228 -8.562395700000001E5
3228 3227 -8.597405700000001E5
3228 3228 1.7159801400000001E6
3228 3229 -8.562395700000001E5
3229 3228 -8.597405700000001E5
3229 3229 1.7159801400000001E6
3229 3230 -8.562395700000001E5
3230 3229 -8.597405700000001E5
3230 3230 1.7159801400000001E6
3230 3231 -8.562395700000001E5
3231 3230 -8.597405700000001E5
3231 3231 1.7159801400000001E6
3231 3232 -8.562395700000001E5
3232 3231 -8.597405700000001E5
3232 3232 1.7159801400000001E6
3232 3233 -8.562395700000001E5
3233 3232 -8.597405700000001E5
3233 3233 1.7159801400000001E6
3233 3234 -8.562395700000001E5
3234 3233 -8.597405700000001E5
3234 3234 1.7159801400000001E6
3234 3235 -8.562395700000001E5
3235 3234 -8.597405700000001E5
3235 3235 1.7159801400000001E6
3235 3236 -8.562395700000001E5
3236 3235 -8.597405700000001E5
3236 3236 1.7159801400000001E6
3236 3237 -8.562395700000001E5
3237 3236 -8.597405700000001E5
3237 3237 1.7159801400000001E6
3237 3238 -8.562395700000001E5
3238 3237 -8.597405700000001E5
3238 3238 1.7159801400000001E6
3238 3239 -8.562395700000001E5
3239 3238 -8.597405700000001E5
3239 3239 1.7159801400000001E6
3239 3240 -8.562395700000001E5
3240 3239 -8.597405700000001E5
3240 3240 1.7159801400000001E6
3240 3241 -8.562395700000001E5
3241 3240 -8.597405700000001E5
3241 3241 1.7159801400000001E6
3241 3242 -8.562395700000001E5
3242 3241 -8.597405700000001E5
3242 3242 1.7159801400000001E6
3242 3243 -8.562395700000001E5
3243 3242 -8.597405700000001E5
3243 3243 1.7159801400000001E6
3243 3244 -8.562395700000001E5
3244 3243 -8.597405700000001E5
3244 3244 1.7159801400000001E6
3244 3245 -8.562395700000001E5
3245 3244 -8.597405700000001E5
3245 3245 1.7159801400000001E6
3245 3246 -8.562395700000001E5
3246 3245 -8.597405700000001E5
3246 3246 1.7159801400000001E6
3246 3247 -8.562395700000001E5
3247 3246 -8.597405700000001E5
3247 3247 1.7159801400000001E6
3247 3248 -8.562395700000001E5
3248 3247 -8.597405700000001E5
3248 3248 1.7159801400000001E6
3248 3249 -8.562395700000001E5
3249 3248 -8.597405700000001E5
3249 3249 1.7159801400000001E6
3249 3250 -8.562395700000001E5
3250 3249 -8.597405700000001E5
3250 3250 1.7159801400000001E6
3250 3251 -8.562395700000001E5
3251 3250 -8.597405700000001E5
3251 3251 1.7159801400000001E6
3251 3252 -8.562395700000001E5
3252 3251 -8.597405700000001E5
3252 3252 1.7159801400000001E6
3252 3253 -8.562395700000001E5
3253 3252 -8.597405700000001E5
3253 3253 1.7159801400000001E6
3253 3254 -8.562395700000001E5
3254 3253 -8.597405700000001E5
3254 3254 1.7159801400000001E6
3254 3255 -8.562395700000001E5
3255 3254 -8.597405700000001E5
3255 3255 1.7159801400000001E6
3255 3256 -8.562395700000001E5
3256 3255 -8.597405700000001E5
3256 3256 1.7159801400000001E6
3256 3257 -8.562395700000001E5
3257 3256 -8.597405700000001E5
3257 3257 1.7159801400000001E6
3257 3258 -8.562395700000001E5
3258 3257 -8.597405700000001E5
3258 3258 1.7159801400000001E6
3258 3259 -8.562395700000001E5
3259 3258 -8.597405700000001E5
3259 3259 1.7159801400000001E6
3259 3260 -8.562395700000001E5
3260 3259 -8.597405700000001E5
3260 3260 1.7159801400000001E6
3260 3261 -8.562395700000001E5
3261 3260 -8.597405700000001E5
3261 3261 1.7159801400000001E6
3261 3262 -8.562395700000001E5
3262 3261 -8.597405700000001E5
3262 3262 1.7159801400000001E6
3262 3263 -8.562395700000001E5
3263 3262 -8.597405700000001E5
3263 3263 1.7159801400000001E6
3263 3264 -8.562395700000001E5
3264 3263 -8.597405700000001E5
3264 3264 1.7159801400000001E6
3264 3265 -8.562395700000001E5
3265 3264 -8.597405700000001E5
3265 3265 1.7159801400000001E6
3265 3266 -8.562395700000001E5
3266 3265 -8.597405700000001E5
3266 3266 1.7159801400000001E6
3266 3267 -8.562395700000001E5
3267 3266 -8.597405700000001E5
3267 3267 1.7159801400000001E6
3267 3268 -8.562395700000001E5
3268 3267 -8.597405700000001E5
3268 3268 1.7159801400000001E6
3268 3269 -8.562395700000001E5
3269 3268 -8.597405700000001E5
3269 3269 1.7159801400000001E6
3269 3270 -8.562395700000001E5
3270 3269 -8.597405700000001E5
3270 3270 1.7159801400000001E6
3270 3271 -8.562395700000001E5
3271 3270 -8.597405700000001E5
3271 3271 1.7159801400000001E6
3271 3272 -8.562395700000001E5
3272 3271 -8.597405700000001E5
3272 3272 1.7159801400000001E6
3272 3273 -8.562395700000001E5
3273 3272 -8.597405700000001E5
3273 3273 1.7159801400000001E6
3273 3274 -8.562395700000001E5
3274 3273 -8.597405700000001E5
3274 3274 1.7159801400000001E6
3274 3275 -8.562395700000001E5
3275 3274 -8.597405700000001E5
3275 3275 1.7159801400000001E6
3275 3276 -8.562395700000001E5
3276 3275 -8.597405700000001E5
3276 3276 1.7159801400000001E6
3276 3277 -8.562395700000001E5
3277 3276 -8.597405700000001E5
3277 3277 1.7159801400000001E6
3277 3278 -8.562395700000001E5
3278 3277 -8.597405700000001E5
3278 3278 1.7159801400000001E6
3278 3279 -8.562395700000001E5
3279 3278 -8.597405700000001E5
3279 3279 1.7159801400000001E6
3279 3280 -8.562395700000001E5
3280 3279 -8.597405700000001E5
3280 3280 1.7159801400000001E6
3280 3281 -8.562395700000001E5
3281 3280 -8.597405700000001E5
3281 3281 1.7159801400000001E6
3281 3282 -8.562395700000001E5
3282 3281 -8.597405700000001E5
3282 3282 1.7159801400000001E6
3282 3283 -8.562395700000001E5
3283 3282 -8.597405700000001E5
3283 3283 1.7159801400000001E6
3283 3284 -8.562395700000001E5
3284 3283 -8.597405700000001E5
3284 3284 1.7159801400000001E6
3284 3285 -8.562395700000001E5
3285 3284 -8.597405700000001E5
3285 3285 1.7159801400000001E6
3285 3286 -8.562395700000001E5
3286 3285 -8.597405700000001E5
3286 3286 1.7159801400000001E6
3286 3287 -8.562395700000001E5
3287 3286 -8.597405700000001E5
3287 3287 1.7159801400000001E6
3287 3288 -8.562395700000001E5
3288 3287 -8.597405700000001E5
3288 3288 1.7159801400000001E6
3288 3289 -8.562395700000001E5
3289 3288 -8.597405700000001E5
3289 3289 1.7159801400000001E6
3289 3290 -8.562395700000001E5
3290 3289 -8.597405700000001E5
3290 3290 1.7159801400000001E6
3290 3291 -8.562395700000001E5
3291 3290 -8.597405700000001E5
3291 3291 1.7159801400000001E6
3291 3292 -8.562395700000001E5
3292 3291 -8.597405700000001E5
3292 3292 1.7159801400000001E6
3292 3293 -8.562395700000001E5
3293 3292 -8.597405700000001E5
3293 3293 1.7159801400000001E6
3293 3294 -8.562395700000001E5
3294 3293 -8.597405700000001E5
3294 3294 1.7159801400000001E6
3294 3295 -8.562395700000001E5
3295 3294 -8.597405700000001E5
3295 3295 1.7159801400000001E6
3295 3296 -8.562395700000001E5
3296 3295 -8.597405700000001E5
3296 3296 1.7159801400000001E6
3296 3297 -8.562395700000001E5
3297 3296 -8.597405700000001E5
3297 3297 1.7159801400000001E6
3297 3298 -8.562395700000001E5
3298 3297 -8.597405700000001E5
3298 3298 1.7159801400000001E6
3298 3299 -8.562395700000001E5
3299 3298 -8.597405700000001E5
3299 3299 1.7159801400000001E6
3299 3300 -8.562395700000001E5
3300 3299 -8.597405700000001E5
3300 3300 1.7159801400000001E6
3300 3301 -8.562395700000001E5
3301 3300 -8.597405700000001E5
3301 3301 1.7159801400000001E6
3301 3302 -8.562395700000001E5
3302 3301 -8.597405700000001E5
3302 3302 1.7159801400000001E6
3302 3303 -8.562395700000001E5
3303 3302 -8.597405700000001E5
3303 3303 1.7159801400000001E6
3303 3304 -8.562395700000001E5
3304 3303 -8.597405700000001E5
3304 3304 1.7159801400000001E6
3304 3305 -8.562395700000001E5
3305 3304 -8.597405700000001E5
3305 3305 1.7159801400000001E6
3305 3306 -8.562395700000001E5
3306 3305 -8.597405700000001E5
3306 3306 1.7159801400000001E6
3306 3307 -8.562395700000001E5
3307 3306 -8.597405700000001E5
3307 3307 1.7159801400000001E6
3307 3308 -8.562395700000001E5
3308 3307 -8.597405700000001E5
3308 3308 1.7159801400000001E6
3308 3309 -8.562395700000001E5
3309 3308 -8.597405700000001E5
3309 3309 1.7159801400000001E6
3309 3310 -8.562395700000001E5
3310 3309 -8.597405700000001E5
3310 3310 1.7159801400000001E6
3310 3311 -8.562395700000001E5
3311 3310 -8.597405700000001E5
3311 3311 1.7159801400000001E6
3311 3312 -8.562395700000001E5
3312 3311 -8.597405700000001E5
3312 3312 1.7159801400000001E6
3312 3313 -8.562395700000001E5
3313 3312 -8.597405700000001E5
3313 3313 1.7159801400000001E6
3313 3314 -8.562395700000001E5
3314 3313 -8.597405700000001E5
3314 3314 1.7159801400000001E6
3314 3315 -8.562395700000001E5
3315 3314 -8.597405700000001E5
3315 3315 1.7159801400000001E6
3315 3316 -8.562395700000001E5
3316 3315 -8.597405700000001E5
3316 3316 1.7159801400000001E6
3316 3317 -8.562395700000001E5
3317 3316 -8.597405700000001E5
3317 3317 1.7159801400000001E6
3317 3318 -8.562395700000001E5
3318 3317 -8.597405700000001E5
3318 3318 1.7159801400000001E6
3318 3319 -8.562395700000001E5
3319 3318 -8.597405700000001E5
3319 3319 1.7159801400000001E6
3319 3320 -8.562395700000001E5
3320 3319 -8.597405700000001E5
3320 3320 1.7159801400000001E6
3320 3321 -8.562395700000001E5
3321 3320 -8.597405700000001E5
3321 3321 1.7159801400000001E6
3321 3322 -8.562395700000001E5
3322 3321 -8.597405700000001E5
3322 3322 1.7159801400000001E6
3322 3323 -8.562395700000001E5
3323 3322 -8.597405700000001E5
3323 3323 1.7159801400000001E6
3323 3324 -8.562395700000001E5
3324 3323 -8.597405700000001E5
3324 3324 1.7159801400000001E6
3324 3325 -8.562395700000001E5
3325 3324 -8.597405700000001E5
3325 3325 1.7159801400000001E6
3325 3326 -8.562395700000001E5
3326 3325 -8.597405700000001E5
3326 3326 1.7159801400000001E6
3326 3327 -8.562395700000001E5
3327 3326 -8.597405700000001E5
3327 3327 1.7159801400000001E6
3327 3328 -8.562395700000001E5
3328 3327 -8.597405700000001E5
3328 3328 1.7159801400000001E6
3328 3329 -8.562395700000001E5
3329 3328 -8.597405700000001E5
3329 3329 1.7159801400000001E6
3329 3330 -8.562395700000001E5
3330 3329 -8.597405700000001E5
3330 3330 1.7159801400000001E6
3330 3331 -8.562395700000001E5
3331 3330 -8.597405700000001E5
3331 3331 1.7159801400000001E6
3331 3332 -8.562395700000001E5
3332 3331 -8.597405700000001E5
3332 3332 1.7159801400000001E6
3332 3333 -8.562395700000001E5
3333 3332 -8.597405700000001E5
3333 3333 1.7159801400000001E6
3333 3334 -8.562395700000001E5
3334 3333 -8.597405700000001E5
3334 3334 1.7159801400000001E6
3334 3335 -8.562395700000001E5
3335 3334 -8.597405700000001E5
3335 3335 1.7159801400000001E6
3335 3336 -8.562395700000001E5
3336 3335 -8.597405700000001E5
3336 3336 1.7159801400000001E6
3336 3337 -8.562395700000001E5
3337 3336 -8.597405700000001E5
3337 3337 1.7159801400000001E6
3337 3338 -8.562395700000001E5
3338 3337 -8.597405700000001E5
3338 3338 1.7159801400000001E6
3338 3339 -8.562395700000001E5
3339 3338 -8.597405700000001E5
3339 3339 1.7159801400000001E6
3339 3340 -8.562395700000001E5
3340 3339 -8.597405700000001E5
3340 3340 1.7159801400000001E6
3340 3341 -8.562395700000001E5
3341 3340 -8.597405700000001E5
3341 3341 1.7159801400000001E6
3341 3342 -8.562395700000001E5
3342 3341 -8.597405700000001E5
3342 3342 1.7159801400000001E6
3342 3343 -8.562395700000001E5
3343 3342 -8.597405700000001E5
3343 3343 1.7159801400000001E6
3343 3344 -8.562395700000001E5
3344 3343 -8.597405700000001E5
3344 3344 1.7159801400000001E6
3344 3345 -8.562395700000001E5
3345 3344 -8.597405700000001E5
3345 3345 1.7159801400000001E6
3345 3346 -8.562395700000001E5
3346 3345 -8.597405700000001E5
3346 3346 1.7159801400000001E6
3346 3347 -8.562395700000001E5
3347 3346 -8.597405700000001E5
3347 3347 1.7159801400000001E6
3347 3348 -8.562395700000001E5
3348 3347 -8.597405700000001E5
3348 3348 1.7159801400000001E6
3348 3349 -8.562395700000001E5
3349 3348 -8.597405700000001E5
3349 3349 1.7159801400000001E6
3349 3350 -8.562395700000001E5
3350 3349 -8.597405700000001E5
3350 3350 1.7159801400000001E6
3350 3351 -8.562395700000001E5
3351 3350 -8.597405700000001E5
3351 3351 1.7159801400000001E6
3351 3352 -8.562395700000001E5
3352 3351 -8.597405700000001E5
3352 3352 1.7159801400000001E6
3352 3353 -8.562395700000001E5
3353 3352 -8.597405700000001E5
3353 3353 1.7159801400000001E6
3353 3354 -8.562395700000001E5
3354 3353 -8.597405700000001E5
3354 3354 1.7159801400000001E6
3354 3355 -8.562395700000001E5
3355 3354 -8.597405700000001E5
3355 3355 1.7159801400000001E6
3355 3356 -8.562395700000001E5
3356 3355 -8.597405700000001E5
3356 3356 1.7159801400000001E6
3356 3357 -8.562395700000001E5
3357 3356 -8.597405700000001E5
3357 3357 1.7159801400000001E6
3357 3358 -8.562395700000001E5
3358 3357 -8.597405700000001E5
3358 3358 1.7159801400000001E6
3358 3359 -8.562395700000001E5
3359 3358 -8.597405700000001E5
3359 3359 1.7159801400000001E6
3359 3360 -8.562395700000001E5
3360 3359 -8.597405700000001E5
3360 3360 1.7159801400000001E6
3360 3361 -8.562395700000001E5
3361 3360 -8.597405700000001E5
3361 3361 1.7159801400000001E6
3361 3362 -8.562395700000001E5
3362 3361 -8.597405700000001E5
3362 3362 1.7159801400000001E6
3362 3363 -8.562395700000001E5
3363 3362 -8.597405700000001E5
3363 3363 1.7159801400000001E6
3363 3364 -8.562395700000001E5
3364 3363 -8.597405700000001E5
3364 3364 1.7159801400000001E6
3364 3365 -8.562395700000001E5
3365 3364 -8.597405700000001E5
3365 3365 1.7159801400000001E6
3365 3366 -8.562395700000001E5
3366 3365 -8.597405700000001E5
3366 3366 1.7159801400000001E6
3366 3367 -8.562395700000001E5
3367 3366 -8.597405700000001E5
3367 3367 1.7159801400000001E6
3367 3368 -8.562395700000001E5
3368 3367 -8.597405700000001E5
3368 3368 1.7159801400000001E6
3368 3369 -8.562395700000001E5
3369 3368 -8.597405700000001E5
3369 3369 1.7159801400000001E6
3369 3370 -8.562395700000001E5
3370 3369 -8.597405700000001E5
3370 3370 1.7159801400000001E6
3370 3371 -8.562395700000001E5
3371 3370 -8.597405700000001E5
3371 3371 1.7159801400000001E6
3371 3372 -8.562395700000001E5
3372 3371 -8.597405700000001E5
3372 3372 1.7159801400000001E6
3372 3373 -8.562395700000001E5
3373 3372 -8.597405700000001E5
3373 3373 1.7159801400000001E6
3373 3374 -8.562395700000001E5
3374 3373 -8.597405700000001E5
3374 3374 1.7159801400000001E6
3374 3375 -8.562395700000001E5
3375 3374 -8.597405700000001E5
3375 3375 1.7159801400000001E6
3375 3376 -8.562395700000001E5
3376 3375 -8.597405700000001E5
3376 3376 1.7159801400000001E6
3376 3377 -8.562395700000001E5
3377 3376 -8.597405700000001E5
3377 3377 1.7159801400000001E6
3377 3378 -8.562395700000001E5
3378 3377 -8.597405700000001E5
3378 3378 1.7159801400000001E6
3378 3379 -8.562395700000001E5
3379 3378 -8.597405700000001E5
3379 3379 1.7159801400000001E6
3379 3380 -8.562395700000001E5
3380 3379 -8.597405700000001E5
3380 3380 1.7159801400000001E6
3380 3381 -8.562395700000001E5
3381 3380 -8.597405700000001E5
3381 3381 1.7159801400000001E6
3381 3382 -8.562395700000001E5
3382 3381 -8.597405700000001E5
3382 3382 1.7159801400000001E6
3382 3383 -8.562395700000001E5
3383 3382 -8.597405700000001E5
3383 3383 1.7159801400000001E6
3383 3384 -8.562395700000001E5
3384 3383 -8.597405700000001E5
3384 3384 1.7159801400000001E6
3384 3385 -8.562395700000001E5
3385 3384 -8.597405700000001E5
3385 3385 1.7159801400000001E6
3385 3386 -8.562395700000001E5
3386 3385 -8.597405700000001E5
3386 3386 1.7159801400000001E6
3386 3387 -8.562395700000001E5
3387 3386 -8.597405700000001E5
3387 3387 1.7159801400000001E6
3387 3388 -8.562395700000001E5
3388 3387 -8.597405700000001E5
3388 3388 1.7159801400000001E6
3388 3389 -8.562395700000001E5
3389 3388 -8.597405700000001E5
3389 3389 1.7159801400000001E6
3389 3390 -8.562395700000001E5
3390 3389 -8.597405700000001E5
3390 3390 1.7159801400000001E6
3390 3391 -8.562395700000001E5
3391 3390 -8.597405700000001E5
3391 3391 1.7159801400000001E6
3391 3392 -8.562395700000001E5
3392 3391 -8.597405700000001E5
3392 3392 1.7159801400000001E6
3392 3393 -8.562395700000001E5
3393 3392 -8.597405700000001E5
3393 3393 1.7159801400000001E6
3393 3394 -8.562395700000001E5
3394 3393 -8.597405700000001E5
3394 3394 1.7159801400000001E6
3394 3395 -8.562395700000001E5
3395 3394 -8.597405700000001E5
3395 3395 1.7159801400000001E6
3395 3396 -8.562395700000001E5
3396 3395 -8.597405700000001E5
3396 3396 1.7159801400000001E6
3396 3397 -8.562395700000001E5
3397 3396 -8.597405700000001E5
3397 3397 1.7159801400000001E6
3397 3398 -8.562395700000001E5
3398 3397 -8.597405700000001E5
3398 3398 1.7159801400000001E6
3398 3399 -8.562395700000001E5
3399 3398 -8.597405700000001E5
3399 3399 1.7159801400000001E6
3399 3400 -8.562395700000001E5
3400 3399 -8.597405700000001E5
3400 3400 1.7159801400000001E6
3400 3401 -8.562395700000001E5
3401 3400 -8.597405700000001E5
3401 3401 1.7159801400000001E6
3401 3402 -8.562395700000001E5
3402 3401 -8.597405700000001E5
3402 3402 1.7159801400000001E6
3402 3403 -8.562395700000001E5
3403 3402 -8.597405700000001E5
3403 3403 1.7159801400000001E6
3403 3404 -8.562395700000001E5
3404 3403 -8.597405700000001E5
3404 3404 1.7159801400000001E6
3404 3405 -8.562395700000001E5
3405 3404 -8.597405700000001E5
3405 3405 1.7159801400000001E6
3405 3406 -8.562395700000001E5
3406 3405 -8.597405700000001E5
3406 3406 1.7159801400000001E6
3406 3407 -8.562395700000001E5
3407 3406 -8.597405700000001E5
3407 3407 1.7159801400000001E6
3407 3408 -8.562395700000001E5
3408 3407 -8.597405700000001E5
3408 3408 1.7159801400000001E6
3408 3409 -8.562395700000001E5
3409 3408 -8.597405700000001E5
3409 3409 1.7159801400000001E6
3409 3410 -8.562395700000001E5
3410 3409 -8.597405700000001E5
3410 3410 1.7159801400000001E6
3410 3411 -8.562395700000001E5
3411 3410 -8.597405700000001E5
3411 3411 1.7159801400000001E6
3411 3412 -8.562395700000001E5
3412 3411 -8.597405700000001E5
3412 3412 1.7159801400000001E6
3412 3413 -8.562395700000001E5
3413 3412 -8.597405700000001E5
3413 3413 1.7159801400000001E6
3413 3414 -8.562395700000001E5
3414 3413 -8.597405700000001E5
3414 3414 1.7159801400000001E6
3414 3415 -8.562395700000001E5
3415 3414 -8.597405700000001E5
3415 3415 1.7159801400000001E6
3415 3416 -8.562395700000001E5
3416 3415 -8.597405700000001E5
3416 3416 1.7159801400000001E6
3416 3417 -8.562395700000001E5
3417 3416 -8.597405700000001E5
3417 3417 1.7159801400000001E6
3417 3418 -8.562395700000001E5
3418 3417 -8.597405700000001E5
3418 3418 1.7159801400000001E6
3418 3419 -8.562395700000001E5
3419 3418 -8.597405700000001E5
3419 3419 1.7159801400000001E6
3419 3420 -8.562395700000001E5
3420 3419 -8.597405700000001E5
3420 3420 1.7159801400000001E6
3420 3421 -8.562395700000001E5
3421 3420 -8.597405700000001E5
3421 3421 1.7159801400000001E6
3421 3422 -8.562395700000001E5
3422 3421 -8.597405700000001E5
3422 3422 1.7159801400000001E6
3422 3423 -8.562395700000001E5
3423 3422 -8.597405700000001E5
3423 3423 1.7159801400000001E6
3423 3424 -8.562395700000001E5
3424 3423 -8.597405700000001E5
3424 3424 1.7159801400000001E6
3424 3425 -8.562395700000001E5
3425 3424 -8.597405700000001E5
3425 3425 1.7159801400000001E6
3425 3426 -8.562395700000001E5
3426 3425 -8.597405700000001E5
3426 3426 1.7159801400000001E6
3426 3427 -8.562395700000001E5
3427 3426 -8.597405700000001E5
3427 3427 1.7159801400000001E6
3427 3428 -8.562395700000001E5
3428 3427 -8.597405700000001E5
3428 3428 1.7159801400000001E6
3428 3429 -8.562395700000001E5
3429 3428 -8.597405700000001E5
3429 3429 1.7159801400000001E6
3429 3430 -8.562395700000001E5
3430 3429 -8.597405700000001E5
3430 3430 1.7159801400000001E6
3430 3431 -8.562395700000001E5
3431 3430 -8.597405700000001E5
3431 3431 1.7159801400000001E6
3431 3432 -8.562395700000001E5
3432 3431 -8.597405700000001E5
3432 3432 1.7159801400000001E6
3432 3433 -8.562395700000001E5
3433 3432 -8.597405700000001E5
3433 3433 1.7159801400000001E6
3433 3434 -8.562395700000001E5
3434 3433 -8.597405700000001E5
3434 3434 1.7159801400000001E6
3434 3435 -8.562395700000001E5
3435 3434 -8.597405700000001E5
3435 3435 1.7159801400000001E6
3435 3436 -8.562395700000001E5
3436 3435 -8.597405700000001E5
3436 3436 1.7159801400000001E6
3436 3437 -8.562395700000001E5
3437 3436 -8.597405700000001E5
3437 3437 1.7159801400000001E6
3437 3438 -8.562395700000001E5
3438 3437 -8.597405700000001E5
3438 3438 1.7159801400000001E6
3438 3439 -8.562395700000001E5
3439 3438 -8.597405700000001E5
3439 3439 1.7159801400000001E6
3439 3440 -8.562395700000001E5
3440 3439 -8.597405700000001E5
3440 3440 1.7159801400000001E6
3440 3441 -8.562395700000001E5
3441 3440 -8.597405700000001E5
3441 3441 1.7159801400000001E6
3441 3442 -8.562395700000001E5
3442 3441 -8.597405700000001E5
3442 3442 1.7159801400000001E6
3442 3443 -8.562395700000001E5
3443 3442 -8.597405700000001E5
3443 3443 1.7159801400000001E6
3443 3444 -8.562395700000001E5
3444 3443 -8.597405700000001E5
3444 3444 1.7159801400000001E6
3444 3445 -8.562395700000001E5
3445 3444 -8.597405700000001E5
3445 3445 1.7159801400000001E6
3445 3446 -8.562395700000001E5
3446 3445 -8.597405700000001E5
3446 3446 1.7159801400000001E6
3446 3447 -8.562395700000001E5
3447 3446 -8.597405700000001E5
3447 3447 1.7159801400000001E6
3447 3448 -8.562395700000001E5
3448 3447 -8.597405700000001E5
3448 3448 1.7159801400000001E6
3448 3449 -8.562395700000001E5
3449 3448 -8.597405700000001E5
3449 3449 1.7159801400000001E6
3449 3450 -8.562395700000001E5
3450 3449 -8.597405700000001E5
3450 3450 1.7159801400000001E6
3450 3451 -8.562395700000001E5
3451 3450 -8.597405700000001E5
3451 3451 1.7159801400000001E6
3451 3452 -8.562395700000001E5
3452 3451 -8.597405700000001E5
3452 3452 1.7159801400000001E6
3452 3453 -8.562395700000001E5
3453 3452 -8.597405700000001E5
3453 3453 1.7159801400000001E6
3453 3454 -8.562395700000001E5
3454 3453 -8.597405700000001E5
3454 3454 1.7159801400000001E6
3454 3455 -8.562395700000001E5
3455 3454 -8.597405700000001E5
3455 3455 1.7159801400000001E6
3455 3456 -8.562395700000001E5
3456 3455 -8.597405700000001E5
3456 3456 1.7159801400000001E6
3456 3457 -8.562395700000001E5
3457 3456 -8.597405700000001E5
3457 3457 1.7159801400000001E6
3457 3458 -8.562395700000001E5
3458 3457 -8.597405700000001E5
3458 3458 1.7159801400000001E6
3458 3459 -8.562395700000001E5
3459 3458 -8.597405700000001E5
3459 3459 1.7159801400000001E6
3459 3460 -8.562395700000001E5
3460 3459 -8.597405700000001E5
3460 3460 1.7159801400000001E6
3460 3461 -8.562395700000001E5
3461 3460 -8.597405700000001E5
3461 3461 1.7159801400000001E6
3461 3462 -8.562395700000001E5
3462 3461 -8.597405700000001E5
3462 3462 1.7159801400000001E6
3462 3463 -8.562395700000001E5
3463 3462 -8.597405700000001E5
3463 3463 1.7159801400000001E6
3463 3464 -8.562395700000001E5
3464 3463 -8.597405700000001E5
3464 3464 1.7159801400000001E6
3464 3465 -8.562395700000001E5
3465 3464 -8.597405700000001E5
3465 3465 1.7159801400000001E6
3465 3466 -8.562395700000001E5
3466 3465 -8.597405700000001E5
3466 3466 1.7159801400000001E6
3466 3467 -8.562395700000001E5
3467 3466 -8.597405700000001E5
3467 3467 1.7159801400000001E6
3467 3468 -8.562395700000001E5
3468 3467 -8.597405700000001E5
3468 3468 1.7159801400000001E6
3468 3469 -8.562395700000001E5
3469 3468 -8.597405700000001E5
3469 3469 1.7159801400000001E6
3469 3470 -8.562395700000001E5
3470 3469 -8.597405700000001E5
3470 3470 1.7159801400000001E6
3470 3471 -8.562395700000001E5
3471 3470 -8.597405700000001E5
3471 3471 1.7159801400000001E6
3471 3472 -8.562395700000001E5
3472 3471 -8.597405700000001E5
3472 3472 1.7159801400000001E6
3472 3473 -8.562395700000001E5
3473 3472 -8.597405700000001E5
3473 3473 1.7159801400000001E6
3473 3474 -8.562395700000001E5
3474 3473 -8.597405700000001E5
3474 3474 1.7159801400000001E6
3474 3475 -8.562395700000001E5
3475 3474 -8.597405700000001E5
3475 3475 1.7159801400000001E6
3475 3476 -8.562395700000001E5
3476 3475 -8.597405700000001E5
3476 3476 1.7159801400000001E6
3476 3477 -8.562395700000001E5
3477 3476 -8.597405700000001E5
3477 3477 1.7159801400000001E6
3477 3478 -8.562395700000001E5
3478 3477 -8.597405700000001E5
3478 3478 1.7159801400000001E6
3478 3479 -8.562395700000001E5
3479 3478 -8.597405700000001E5
3479 3479 1.7159801400000001E6
3479 3480 -8.562395700000001E5
3480 3479 -8.597405700000001E5
3480 3480 1.7159801400000001E6
3480 3481 -8.562395700000001E5
3481 3480 -8.597405700000001E5
3481 3481 1.7159801400000001E6
3481 3482 -8.562395700000001E5
3482 3481 -8.597405700000001E5
3482 3482 1.7159801400000001E6
3482 3483 -8.562395700000001E5
3483 3482 -8.597405700000001E5
3483 3483 1.7159801400000001E6
3483 3484 -8.562395700000001E5
3484 3483 -8.597405700000001E5
3484 3484 1.7159801400000001E6
3484 3485 -8.562395700000001E5
3485 3484 -8.597405700000001E5
3485 3485 1.7159801400000001E6
3485 3486 -8.562395700000001E5
3486 3485 -8.597405700000001E5
3486 3486 1.7159801400000001E6
3486 3487 -8.562395700000001E5
3487 3486 -8.597405700000001E5
3487 3487 1.7159801400000001E6
3487 3488 -8.562395700000001E5
3488 3487 -8.597405700000001E5
3488 3488 1.7159801400000001E6
3488 3489 -8.562395700000001E5
3489 3488 -8.597405700000001E5
3489 3489 1.7159801400000001E6
3489 3490 -8.562395700000001E5
3490 3489 -8.597405700000001E5
3490 3490 1.7159801400000001E6
3490 3491 -8.562395700000001E5
3491 3490 -8.597405700000001E5
3491 3491 1.7159801400000001E6
3491 3492 -8.562395700000001E5
3492 3491 -8.597405700000001E5
3492 3492 1.7159801400000001E6
3492 3493 -8.562395700000001E5
3493 3492 -8.597405700000001E5
3493 3493 1.7159801400000001E6
3493 3494 -8.562395700000001E5
3494 3493 -8.597405700000001E5
3494 3494 1.7159801400000001E6
3494 3495 -8.562395700000001E5
3495 3494 -8.597405700000001E5
3495 3495 1.7159801400000001E6
3495 3496 -8.562395700000001E5
3496 3495 -8.597405700000001E5
3496 3496 1.7159801400000001E6
3496 3497 -8.562395700000001E5
3497 3496 -8.597405700000001E5
3497 3497 1.7159801400000001E6
3497 3498 -8.562395700000001E5
3498 3497 -8.597405700000001E5
3498 3498 1.7159801400000001E6
3498 3499 -8.562395700000001E5
3499 3498 -8.597405700000001E5
3499 3499 1.7159801400000001E6
3499 3500 -8.562395700000001E5
3500 3499 -8.597405700000001E5
3500 3500 1.7159801400000001E6
