%%MatrixMarket matrix coordinate real general
% 1D convection-diffusion (-eps*u'' + beta*u' = f), central FD, n=2200, eps=0.18, beta=1.0, kappa~=1101898
2200 2200 6598
1 1 1.74398436E6
1 2 -8.7089168E5
2 1 -8.7309268E5
2 2 1.74398436E6
2 3 -8.7089168E5
3 2 -8.7309268E5
3 3 1.74398436E6
3 4 -8.7089168E5
4 3 -8.7309268E5
4 4 1.74398436E6
4 5 -8.7089168E5
5 4 -8.7309268E5
5 5 1.74398436E6
5 6 -8.7089168E5
6 5 -8.7309268E5
6 6 1.74398436E6
6 7 -8.7089168E5
7 6 -8.7309268E5
7 7 1.74398436E6
7 8 -8.7089168E5
8 7 -8.7309268E5
8 8 1.74398436E6
8 9 -8.7089168E5
9 8 -8.7309268E5
9 9 1.74398436E6
9 10 -8.7089168E5
10 9 -8.7309268E5
10 10 1.74398436E6
10 11 -8.7089168E5
11 10 -8.7309268E5
11 11 1.74398436E6
11 12 -8.7089168E5
12 11 -8.7309268E5
12 12 1.74398436E6
12 13 -8.7089168E5
13 12 -8.7309268E5
13 13 1.74398436E6
13 14 -8.7089168E5
14 13 -8.7309268E5
14 14 1.74398436E6
14 15 -8.7089168E5
15 14 -8.7309268E5
15 15 1.74398436E6
15 16 -8.7089168E5
16 15 -8.7309268E5
16 16 1.74398436E6
16 17 -8.7089168E5
17 16 -8.7309268E5
17 17 1.74398436E6
17 18 -8.7089168E5
18 17 -8.7309268E5
18 18 1.74398436E6
18 19 -8.7089168E5
19 18 -8.7309268E5
19 19 1.74398436E6
19 20 -8.7089168E5
20 19 -8.7309268E5
20 20 1.74398436E6
20 21 -8.7089168E5
21 20 -8.7309268E5
21 21 1.74398436E6
21 22 -8.7089168E5
22 21 -8.7309268E5
22 22 1.74398436E6
22 23 -8.7089168E5
23 22 -8.7309268E5
23 23 1.74398436E6
23 24 -8.7089168E5
24 23 -8.7309268E5
24 24 1.74398436E6
24 25 -8.7089168E5
25 24 -8.7309268E5
25 25 1.74398436E6
25 26 -8.7089168E5
26 25 -8.7309268E5
26 26 1.74398436E6
26 27 -8.7089168E5
27 26 -8.7309268E5
27 27 1.74398436E6
27 28 -8.7089168E5
28 27 -8.7309268E5
28 28 1.74398436E6
28 29 -8.7089168E5
29 28 -8.7309268E5
29 29 1.74398436E6
29 30 -8.7089168E5
30 29 -8.7309268E5
30 30 1.74398436E6
30 31 -8.7089168E5
31 30 -8.7309268E5
31 31 1.74398436E6
31 32 -8.7089168E5
32 31 -8.7309268E5
32 32 1.74398436E6
32 33 -8.7089168E5
33 32 -8.7309268E5
33 33 1.74398436E6
33 34 -8.7089168E5
34 33 -8.7309268E5
34 34 1.74398436E6
34 35 -8.7089168E5
35 34 -8.7309268E5
35 35 1.74398436E6
35 36 -8.7089168E5
36 35 -8.7309268E5
36 36 1.74398436E6
36 37 -8.7089168E5
37 36 -8.7309268E5
37 37 1.74398436E6
37 38 -8.7089168E5
38 37 -8.7309268E5
38 38 1.74398436E6
38 39 -8.7089168E5
39 38 -8.7309268E5
39 39 1.74398436E6
39 40 -8.7089168E5
40 39 -8.7309268E5
40 40 1.74398436E6
40 41 -8.7089168E5
41 40 -8.7309268E5
41 41 1.74398436E6
41 42 -8.7089168E5
42 41 -8.7309268E5
42 42 1.74398436E6
42 43 -8.7089168E5
43 42 -8.7309268E5
43 43 1.74398436E6
43 44 -8.7089168E5
44 43 -8.7309268E5
44 44 1.74398436E6
44 45 -8.7089168E5
45 44 -8.7309268E5
45 45 1.74398436E6
45 46 -8.7089168E5
46 45 -8.7309268E5
46 46 1.74398436E6
46 47 -8.7089168E5
47 46 -8.7309268E5
47 47 1.74398436E6
47 48 -8.7089168E5
48 47 -8.7309268E5
48 48 1.74398436E6
48 49 -8.7089168E5
49 48 -8.7309268E5
49 49 1.74398436E6
49 50 -8.7089168E5
50 49 -8.7309268E5
50 50 1.74398436E6
50 51 -8.7089168E5
51 50 -8.7309268E5
51 51 1.74398436E6
51 52 -8.7089168E5
52 51 -8.7309268E5
52 52 1.74398436E6
52 53 -8.7089168E5
53 52 -8.7309268E5
53 53 1.74398436E6
53 54 -8.7089168E5
54 53 -8.7309268E5
54 54 1.74398436E6
54 55 -8.7089168E5
55 54 -8.7309268E5
55 55 1.74398436E6
55 56 -8.7089168E5
56 55 -8.7309268E5
56 56 1.74398436E6
56 57 -8.7089168E5
57 56 -8.7309268E5
57 57 1.74398436E6
57 58 -8.7089168E5
58 57 -8.7309268E5
58 58 1.74398436E6
58 59 -8.7089168E5
59 58 -8.7309268E5
59 59 1.74398436E6
59 60 -8.7089168E5
60 59 -8.7309268E5
60 60 1.74398436E6
60 61 -8.7089168E5
61 60 -8.7309268E5
61 61 1.74398436E6
61 62 -8.7089168E5
62 61 -8.7309268E5
62 62 1.74398436E6
62 63 -8.7089168E5
63 62 -8.7309268E5
63 63 1.74398436E6
63 64 -8.7089168E5
64 63 -8.7309268E5
64 64 1.74398436E6
64 65 -8.7089168E5
65 64 -8.7309268E5
65 65 1.74398436E6
65 66 -8.7089168E5
66 65 -8.7309268E5
66 66 1.74398436E6
66 67 -8.7089168E5
67 66 -8.7309268E5
67 67 1.74398436E6
67 68 -8.7089168E5
68 67 -8.7309268E5
68 68 1.74398436E6
68 69 -8.7089168E5
69 68 -8.7309268E5
69 69 1.74398436E6
69 70 -8.7089168E5
70 69 -8.7309268E5
70 70 1.74398436E6
70 71 -8.7089168E5
71 70 -8.7309268E5
71 71 1.74398436E6
71 72 -8.7089168E5
72 71 -8.7309268E5
72 72 1.74398436E6
72 73 -8.7089168E5
73 72 -8.7309268E5
73 73 1.74398436E6
73 74 -8.7089168E5
74 73 -8.7309268E5
74 74 1.74398436E6
74 75 -8.7089168E5
75 74 -8.7309268E5
75 75 1.74398436E6
75 76 -8.7089168E5
76 75 -8.7309268E5
76 76 1.74398436E6
76 77 -8.7089168E5
77 76 -8.7309268E5
77 77 1.74398436E6
77 78 -8.7089168E5
78 77 -8.7309268E5
78 78 1.74398436E6
78 79 -8.7089168E5
79 78 -8.7309268E5
79 79 1.74398436E6
79 80 -8.7089168E5
80 79 -8.7309268E5
80 80 1.74398436E6
80 81 -8.7089168E5
81 80 -8.7309268E5
81 81 1.74398436E6
81 82 -8.7089168E5
82 81 -8.7309268E5
82 82 1.74398436E6
82 83 -8.7089168E5
83 82 -8.7309268E5
83 83 1.74398436E6
83 84 -8.7089168E5
84 83 -8.7309268E5
84 84 1.74398436E6
84 85 -8.7089168E5
85 84 -8.7309268E5
85 85 1.74398436E6
85 86 -8.7089168E5
86 85 -8.7309268E5
86 86 1.74398436E6
86 87 -8.7089168E5
87 86 -8.7309268E5
87 87 1.74398436E6
87 88 -8.7089168E5
88 87 -8.7309268E5
88 88 1.74398436E6
88 89 -8.7089168E5
89 88 -8.7309268E5
89 89 1.74398436E6
89 90 -8.7089168E5
90 89 -8.7309268E5
90 90 1.74398436E6
90 91 -8.7089168E5
91 90 -8.7309268E5
91 91 1.74398436E6
91 92 -8.7089168E5
92 91 -8.7309268E5
92 92 1.74398436E6
92 93 -8.7089168E5
93 92 -8.7309268E5
93 93 1.74398436E6
93 94 -8.7089168E5
94 93 -8.7309268E5
94 94 1.74398436E6
94 95 -8.7089168E5
95 94 -8.7309268E5
95 95 1.74398436E6
95 96 -8.7089168E5
96 95 -8.7309268E5
96 96 1.74398436E6
96 97 -8.7089168E5
97 96 -8.7309268E5
97 97 1.74398436E6
97 98 -8.7089168E5
98 97 -8.7309268E5
98 98 1.74398436E6
98 99 -8.7089168E5
99 98 -8.7309268E5
99 99 1.74398436E6
99 100 -8.7089168E5
100 99 -8.7309268E5
100 100 1.74398436E6
100 101 -8.7089168E5
101 100 -8.7309268E5
101 101 1.74398436E6
101 102 -8.7089168E5
102 101 -8.7309268E5
102 102 1.74398436E6
102 103 -8.7089168E5
103 102 -8.7309268E5
103 103 1.74398436E6
103 104 -8.7089168E5
104 103 -8.7309268E5
104 104 1.74398436E6
104 105 -8.7089168E5
105 104 -8.7309268E5
105 105 1.74398436E6
105 106 -8.7089168E5
106 105 -8.7309268E5
106 106 1.74398436E6
106 107 -8.7089168E5
107 106 -8.7309268E5
107 107 1.74398436E6
107 108 -8.7089168E5
108 107 -8.7309268E5
108 108 1.74398436E6
108 109 -8.7089168E5
109 108 -8.7309268E5
109 109 1.74398436E6
109 110 -8.7089168E5
110 109 -8.7309268E5
110 110 1.74398436E6
110 111 -8.7089168E5
111 110 -8.7309268E5
111 111 1.74398436E6
111 112 -8.7089168E5
112 111 -8.7309268E5
112 112 1.74398436E6
112 113 -8.7089168E5
113 112 -8.7309268E5
113 113 1.74398436E6
113 114 -8.7089168E5
114 113 -8.7309268E5
114 114 1.74398436E6
114 115 -8.7089168E5
115 114 -8.7309268E5
115 115 1.74398436E6
115 116 -8.7089168E5
116 115 -8.7309268E5
116 116 1.74398436E6
116 117 -8.7089168E5
117 116 -8.7309268E5
117 117 1.74398436E6
117 118 -8.7089168E5
118 117 -8.7309268E5
118 118 1.74398436E6
118 119 -8.7089168E5
119 118 -8.7309268E5
119 119 1.74398436E6
119 120 -8.7089168E5
120 119 -8.7309268E5
120 120 1.74398436E6
120 121 -8.7089168E5
121 120 -8.7309268E5
121 121 1.74398436E6
121 122 -8.7089168E5
122 121 -8.7309268E5
122 122 1.74398436E6
122 123 -8.7089168E5
123 122 -8.7309268E5
123 123 1.74398436E6
123 124 -8.7089168E5
124 123 -8.7309268E5
124 124 1.74398436E6
124 125 -8.7089168E5
125 124 -8.7309268E5
125 125 1.74398436E6
125 126 -8.7089168E5
126 125 -8.7309268E5
126 126 1.74398436E6
126 127 -8.7089168E5
127 126 -8.7309268E5
127 127 1.74398436E6
127 128 -8.7089168E5
128 127 -8.7309268E5
128 128 1.74398436E6
128 129 -8.7089168E5
129 128 -8.7309268E5
129 129 1.74398436E6
129 130 -8.7089168E5
130 129 -8.7309268E5
130 130 1.74398436E6
130 131 -8.7089168E5
131 130 -8.7309268E5
131 131 1.74398436E6
131 132 -8.7089168E5
132 131 -8.7309268E5
132 132 1.74398436E6
132 133 -8.7089168E5
133 132 -8.7309268E5
133 133 1.74398436E6
133 134 -8.7089168E5
134 133 -8.7309268E5
134 134 1.74398436E6
134 135 -8.7089168E5
135 134 -8.7309268E5
135 135 1.74398436E6
135 136 -8.7089168E5
136 135 -8.7309268E5
136 136 1.74398436E6
136 137 -8.7089168E5
137 136 -8.7309268E5
137 137 1.74398436E6
137 138 -8.7089168E5
138 137 -8.7309268E5
138 138 1.74398436E6
138 139 -8.7089168E5
139 138 -8.7309268E5
139 139 1.74398436E6
139 140 -8.7089168E5
140 139 -8.7309268E5
140 140 1.74398436E6
140 141 -8.7089168E5
141 140 -8.7309268E5
141 141 1.74398436E6
141 142 -8.7089168E5
142 141 -8.7309268E5
142 142 1.74398436E6
142 143 -8.7089168E5
143 142 -8.7309268E5
143 143 1.74398436E6
143 144 -8.7089168E5
144 143 -8.7309268E5
144 144 1.74398436E6
144 145 -8.7089168E5
145 144 -8.7309268E5
145 145 1.74398436E6
145 146 -8.7089168E5
146 145 -8.7309268E5
146 146 1.74398436E6
146 147 -8.7089168E5
147 146 -8.7309268E5
147 147 1.74398436E6
147 148 -8.7089168E5
148 147 -8.7309268E5
148 148 1.74398436E6
148 149 -8.7089168E5
149 148 -8.7309268E5
149 149 1.74398436E6
149 150 -8.7089168E5
150 149 -8.7309268E5
150 150 1.74398436E6
150 151 -8.7089168E5
151 150 -8.7309268E5
151 151 1.74398436E6
151 152 -8.7089168E5
152 151 -8.7309268E5
152 152 1.74398436E6
152 153 -8.7089168E5
153 152 -8.7309268E5
153 153 1.74398436E6
153 154 -8.7089168E5
154 153 -8.7309268E5
154 154 1.74398436E6
154 155 -8.7089168E5
155 154 -8.7309268E5
155 155 1.74398436E6
155 156 -8.7089168E5
156 155 -8.7309268E5
156 156 1.74398436E6
156 157 -8.7089168E5
157 156 -8.7309268E5
157 157 1.74398436E6
157 158 -8.7089168E5
158 157 -8.7309268E5
158 158 1.74398436E6
158 159 -8.7089168E5
159 158 -8.7309268E5
159 159 1.74398436E6
159 160 -8.7089168E5
160 159 -8.7309268E5
160 160 1.74398436E6
160 161 -8.7089168E5
161 160 -8.7309268E5
161 161 1.74398436E6
161 162 -8.7089168E5
162 161 -8.7309268E5
162 162 1.74398436E6
162 163 -8.7089168E5
163 162 -8.7309268E5
163 163 1.74398436E6
163 164 -8.7089168E5
164 163 -8.7309268E5
164 164 1.74398436E6
164 165 -8.7089168E5
165 164 -8.7309268E5
165 165 1.74398436E6
165 166 -8.7089168E5
166 165 -8.7309268E5
166 166 1.74398436E6
166 167 -8.7089168E5
167 166 -8.7309268E5
167 167 1.74398436E6
167 168 -8.7089168E5
168 167 -8.7309268E5
168 168 1.74398436E6
168 169 -8.7089168E5
169 168 -8.7309268E5
169 169 1.74398436E6
169 170 -8.7089168E5
170 169 -8.7309268E5
170 170 1.74398436E6
170 171 -8.7089168E5
171 170 -8.7309268E5
171 171 1.74398436E6
171 172 -8.7089168E5
172 171 -8.7309268E5
172 172 1.74398436E6
172 173 -8.7089168E5
173 172 -8.7309268E5
173 173 1.74398436E6
173 174 -8.7089168E5
174 173 -8.7309268E5
174 174 1.74398436E6
174 175 -8.7089168E5
175 174 -8.7309268E5
175 175 1.74398436E6
175 176 -8.7089168E5
176 175 -8.7309268E5
176 176 1.74398436E6
176 177 -8.7089168E5
177 176 -8.7309268E5
177 177 1.74398436E6
177 178 -8.7089168E5
178 177 -8.7309268E5
178 178 1.74398436E6
178 179 -8.7089168E5
179 178 -8.7309268E5
179 179 1.74398436E6
179 180 -8.7089168E5
180 179 -8.7309268E5
180 180 1.74398436E6
180 181 -8.7089168E5
181 180 -8.7309268E5
181 181 1.74398436E6
181 182 -8.7089168E5
182 181 -8.7309268E5
182 182 1.74398436E6
182 183 -8.7089168E5
183 182 -8.7309268E5
183 183 1.74398436E6
183 184 -8.7089168E5
184 183 -8.7309268E5
184 184 1.74398436E6
184 185 -8.7089168E5
185 184 -8.7309268E5
185 185 1.74398436E6
185 186 -8.7089168E5
186 185 -8.7309268E5
186 186 1.74398436E6
186 187 -8.7089168E5
187 186 -8.7309268E5
187 187 1.74398436E6
187 188 -8.7089168E5
188 187 -8.7309268E5
188 188 1.74398436E6
188 189 -8.7089168E5
189 188 -8.7309268E5
189 189 1.74398436E6
189 190 -8.7089168E5
190 189 -8.7309268E5
190 190 1.74398436E6
190 191 -8.7089168E5
191 190 -8.7309268E5
191 191 1.74398436E6
191 192 -8.7089168E5
192 191 -8.7309268E5
192 192 1.74398436E6
192 193 -8.7089168E5
193 192 -8.7309268E5
193 193 1.74398436E6
193 194 -8.7089168E5
194 193 -8.7309268E5
194 194 1.74398436E6
194 195 -8.7089168E5
195 194 -8.7309268E5
195 195 1.74398436E6
195 196 -8.7089168E5
196 195 -8.7309268E5
196 196 1.74398436E6
196 197 -8.7089168E5
197 196 -8.7309268E5
197 197 1.74398436E6
197 198 -8.7089168E5
198 197 -8.7309268E5
198 198 1.74398436E6
198 199 -8.7089168E5
199 198 -8.7309268E5
199 199 1.74398436E6
199 200 -8.7089168E5
200 199 -8.7309268E5
200 200 1.74398436E6
200 201 -8.7089168E5
201 200 -8.7309268E5
201 201 1.74398436E6
201 202 -8.7089168E5
202 201 -8.7309268E5
202 202 1.74398436E6
202 203 -8.7089168E5
203 202 -8.7309268E5
203 203 1.74398436E6
203 204 -8.7089168E5
204 203 -8.7309268E5
204 204 1.74398436E6
204 205 -8.7089168E5
205 204 -8.7309268E5
205 205 1.74398436E6
205 206 -8.7089168E5
206 205 -8.7309268E5
206 206 1.74398436E6
206 207 -8.7089168E5
207 206 -8.7309268E5
207 207 1.74398436E6
207 208 -8.7089168E5
208 207 -8.7309268E5
208 208 1.74398436E6
208 209 -8.7089168E5
209 208 -8.7309268E5
209 209 1.74398436E6
209 210 -8.7089168E5
210 209 -8.7309268E5
210 210 1.74398436E6
210 211 -8.7089168E5
211 210 -8.7309268E5
211 211 1.74398436E6
211 212 -8.7089168E5
212 211 -8.7309268E5
212 212 1.74398436E6
212 213 -8.7089168E5
213 212 -8.7309268E5
213 213 1.74398436E6
213 214 -8.7089168E5
214 213 -8.7309268E5
214 214 1.74398436E6
214 215 -8.7089168E5
215 214 -8.7309268E5
215 215 1.74398436E6
215 216 -8.7089168E5
216 215 -8.7309268E5
216 216 1.74398436E6
216 217 -8.7089168E5
217 216 -8.7309268E5
217 217 1.74398436E6
217 218 -8.7089168E5
218 217 -8.7309268E5
218 218 1.74398436E6
218 219 -8.7089168E5
219 218 -8.7309268E5
219 219 1.74398436E6
219 220 -8.7089168E5
220 219 -8.7309268E5
220 220 1.74398436E6
220 221 -8.7089168E5
221 220 -8.7309268E5
221 221 1.74398436E6
221 222 -8.7089168E5
222 221 -8.7309268E5
222 222 1.74398436E6
222 223 -8.7089168E5
223 222 -8.7309268E5
223 223 1.74398436E6
223 224 -8.7089168E5
224 223 -8.7309268E5
224 224 1.74398436E6
224 225 -8.7089168E5
225 224 -8.7309268E5
225 225 1.74398436E6
225 226 -8.7089168E5
226 225 -8.7309268E5
226 226 1.74398436E6
226 227 -8.7089168E5
227 226 -8.7309268E5
227 227 1.74398436E6
227 228 -8.7089168E5
228 227 -8.7309268E5
228 228 1.74398436E6
228 229 -8.7089168E5
229 228 -8.7309268E5
229 229 1.74398436E6
229 230 -8.7089168E5
230 229 -8.7309268E5
230 230 1.74398436E6
230 231 -8.7089168E5
231 230 -8.7309268E5
231 231 1.74398436E6
231 232 -8.7089168E5
232 231 -8.7309268E5
232 232 1.74398436E6
232 233 -8.7089168E5
233 232 -8.7309268E5
233 233 1.74398436E6
233 234 -8.7089168E5
234 233 -8.7309268E5
234 234 1.74398436E6
234 235 -8.7089168E5
235 234 -8.7309268E5
235 235 1.74398436E6
235 236 -8.7089168E5
236 235 -8.7309268E5
236 236 1.74398436E6
236 237 -8.7089168E5
237 236 -8.7309268E5
237 237 1.74398436E6
237 238 -8.7089168E5
238 237 -8.7309268E5
238 238 1.74398436E6
238 239 -8.7089168E5
239 238 -8.7309268E5
239 239 1.74398436E6
239 240 -8.7089168E5
240 239 -8.7309268E5
240 240 1.74398436E6
240 241 -8.7089168E5
241 240 -8.7309268E5
241 241 1.74398436E6
241 242 -8.7089168E5
242 241 -8.7309268E5
242 242 1.74398436E6
242 243 -8.7089168E5
243 242 -8.7309268E5
243 243 1.74398436E6
243 244 -8.7089168E5
244 243 -8.7309268E5
244 244 1.74398436E6
244 245 -8.7089168E5
245 244 -8.7309268E5
245 245 1.74398436E6
245 246 -8.7089168E5
246 245 -8.7309268E5
246 246 1.74398436E6
246 247 -8.7089168E5
247 246 -8.7309268E5
247 247 1.74398436E6
247 248 -8.7089168E5
248 247 -8.7309268E5
248 248 1.74398436E6
248 249 -8.7089168E5
249 248 -8.7309268E5
249 249 1.74398436E6
249 250 -8.7089168E5
250 249 -8.7309268E5
250 250 1.74398436E6
250 251 -8.7089168E5
251 250 -8.7309268E5
251 251 1.74398436E6
251 252 -8.7089168E5
252 251 -8.7309268E5
252 252 1.74398436E6
252 253 -8.7089168E5
253 252 -8.7309268E5
253 253 1.74398436E6
253 254 -8.7089168E5
254 253 -8.7309268E5
254 254 1.74398436E6
254 255 -8.7089168E5
255 254 -8.7309268E5
255 255 1.74398436E6
255 256 -8.7089168E5
256 255 -8.7309268E5
256 256 1.74398436E6
256 257 -8.7089168E5
257 256 -8.7309268E5
257 257 1.74398436E6
257 258 -8.7089168E5
258 257 -8.7309268E5
258 258 1.74398436E6
258 259 -8.7089168E5
259 258 -8.7309268E5
259 259 1.74398436E6
259 260 -8.7089168E5
260 259 -8.7309268E5
260 260 1.74398436E6
260 261 -8.7089168E5
261 260 -8.7309268E5
261 261 1.74398436E6
261 262 -8.7089168E5
262 261 -8.7309268E5
262 262 1.74398436E6
262 263 -8.7089168E5
263 262 -8.7309268E5
263 263 1.74398436E6
263 264 -8.7089168E5
264 263 -8.7309268E5
264 264 1.74398436E6
264 265 -8.7089168E5
265 264 -8.7309268E5
265 265 1.74398436E6
265 266 -8.7089168E5
266 265 -8.7309268E5
266 266 1.74398436E6
266 267 -8.7089168E5
267 266 -8.7309268E5
267 267 1.74398436E6
267 268 -8.7089168E5
268 267 -8.7309268E5
268 268 1.74398436E6
268 269 -8.7089168E5
269 268 -8.7309268E5
269 269 1.74398436E6
269 270 -8.7089168E5
270 269 -8.7309268E5
270 270 1.74398436E6
270 271 -8.7089168E5
271 270 -8.7309268E5
271 271 1.74398436E6
271 272 -8.7089168E5
272 271 -8.7309268E5
272 272 1.74398436E6
272 273 -8.7089168E5
273 272 -8.7309268E5
273 273 1.74398436E6
273 274 -8.7089168E5
274 273 -8.7309268E5
274 274 1.74398436E6
274 275 -8.7089168E5
275 274 -8.7309268E5
275 275 1.74398436E6
275 276 -8.7089168E5
276 275 -8.7309268E5
276 276 1.74398436E6
276 277 -8.7089168E5
277 276 -8.7309268E5
277 277 1.74398436E6
277 278 -8.7089168E5
278 277 -8.7309268E5
278 278 1.74398436E6
278 279 -8.7089168E5
279 278 -8.7309268E5
279 279 1.74398436E6
279 280 -8.7089168E5
280 279 -8.7309268E5
280 280 1.74398436E6
280 281 -8.7089168E5
281 280 -8.7309268E5
281 281 1.74398436E6
281 282 -8.7089168E5
282 281 -8.7309268E5
282 282 1.74398436E6
282 283 -8.7089168E5
283 282 -8.7309268E5
283 283 1.74398436E6
283 284 -8.7089168E5
284 283 -8.7309268E5
284 284 1.74398436E6
284 285 -8.7089168E5
285 284 -8.7309268E5
285 285 1.74398436E6
285 286 -8.7089168E5
286 285 -8.7309268E5
286 286 1.74398436E6
286 287 -8.7089168E5
287 286 -8.7309268E5
287 287 1.74398436E6
287 288 -8.7089168E5
288 287 -8.7309268E5
288 288 1.74398436E6
288 289 -8.7089168E5
289 288 -8.7309268E5
289 289 1.74398436E6
289 290 -8.7089168E5
290 289 -8.7309268E5
290 290 1.74398436E6
290 291 -8.7089168E5
291 290 -8.7309268E5
291 291 1.74398436E6
291 292 -8.7089168E5
292 291 -8.7309268E5
292 292 1.74398436E6
292 293 -8.7089168E5
293 292 -8.7309268E5
293 293 1.74398436E6
293 294 -8.7089168E5
294 293 -8.7309268E5
294 294 1.74398436E6
294 295 -8.7089168E5
295 294 -8.7309268E5
295 295 1.74398436E6
295 296 -8.7089168E5
296 295 -8.7309268E5
296 296 1.74398436E6
296 297 -8.7089168E5
297 296 -8.7309268E5
297 297 1.74398436E6
297 298 -8.7089168E5
298 297 -8.7309268E5
298 298 1.74398436E6
298 299 -8.7089168E5
299 298 -8.7309268E5
299 299 1.74398436E6
299 300 -8.7089168E5
300 299 -8.7309268E5
300 300 1.74398436E6
300 301 -8.7089168E5
301 300 -8.7309268E5
301 301 1.74398436E6
301 302 -8.7089168E5
302 301 -8.7309268E5
302 302 1.74398436E6
302 303 -8.7089168E5
303 302 -8.7309268E5
303 303 1.74398436E6
303 304 -8.7089168E5
304 303 -8.7309268E5
304 304 1.74398436E6
304 305 -8.7089168E5
305 304 -8.7309268E5
305 305 1.74398436E6
305 306 -8.7089168E5
306 305 -8.7309268E5
306 306 1.74398436E6
306 307 -8.7089168E5
307 306 -8.7309268E5
307 307 1.74398436E6
307 308 -8.7089168E5
308 307 -8.7309268E5
308 308 1.74398436E6
308 309 -8.7089168E5
309 308 -8.7309268E5
309 309 1.74398436E6
309 310 -8.7089168E5
310 309 -8.7309268E5
310 310 1.74398436E6
310 311 -8.7089168E5
311 310 -8.7309268E5
311 311 1.74398436E6
311 312 -8.7089168E5
312 311 -8.7309268E5
312 312 1.74398436E6
312 313 -8.7089168E5
313 312 -8.7309268E5
313 313 1.74398436E6
313 314 -8.7089168E5
314 313 -8.7309268E5
314 314 1.74398436E6
314 315 -8.7089168E5
315 314 -8.7309268E5
315 315 1.74398436E6
315 316 -8.7089168E5
316 315 -8.7309268E5
316 316 1.74398436E6
316 317 -8.7089168E5
317 316 -8.7309268E5
317 317 1.74398436E6
317 318 -8.7089168E5
318 317 -8.7309268E5
318 318 1.74398436E6
318 319 -8.7089168E5
319 318 -8.7309268E5
319 319 1.74398436E6
319 320 -8.7089168E5
320 319 -8.7309268E5
320 320 1.74398436E6
320 321 -8.7089168E5
321 320 -8.7309268E5
321 321 1.74398436E6
321 322 -8.7089168E5
322 321 -8.7309268E5
322 322 1.74398436E6
322 323 -8.7089168E5
323 322 -8.7309268E5
323 323 1.74398436E6
323 324 -8.7089168E5
324 323 -8.7309268E5
324 324 1.74398436E6
324 325 -8.7089168E5
325 324 -8.7309268E5
325 325 1.74398436E6
325 326 -8.7089168E5
326 325 -8.7309268E5
326 326 1.74398436E6
326 327 -8.7089168E5
327 326 -8.7309268E5
327 327 1.74398436E6
327 328 -8.7089168E5
328 327 -8.7309268E5
328 328 1.74398436E6
328 329 -8.7089168E5
329 328 -8.7309268E5
329 329 1.74398436E6
329 330 -8.7089168E5
330 329 -8.7309268E5
330 330 1.74398436E6
330 331 -8.7089168E5
331 330 -8.7309268E5
331 331 1.74398436E6
331 332 -8.7089168E5
332 331 -8.7309268E5
332 332 1.74398436E6
332 333 -8.7089168E5
333 332 -8.7309268E5
333 333 1.74398436E6
333 334 -8.7089168E5
334 333 -8.7309268E5
334 334 1.74398436E6
334 335 -8.7089168E5
335 334 -8.7309268E5
335 335 1.74398436E6
335 336 -8.7089168E5
336 335 -8.7309268E5
336 336 1.74398436E6
336 337 -8.7089168E5
337 336 -8.7309268E5
337 337 1.74398436E6
337 338 -8.7089168E5
338 337 -8.7309268E5
338 338 1.74398436E6
338 339 -8.7089168E5
339 338 -8.7309268E5
339 339 1.74398436E6
339 340 -8.7089168E5
340 339 -8.7309268E5
340 340 1.74398436E6
340 341 -8.7089168E5
341 340 -8.7309268E5
341 341 1.74398436E6
341 342 -8.7089168E5
342 341 -8.7309268E5
342 342 1.74398436E6
342 343 -8.7089168E5
343 342 -8.7309268E5
343 343 1.74398436E6
343 344 -8.7089168E5
344 343 -8.7309268E5
344 344 1.74398436E6
344 345 -8.7089168E5
345 344 -8.7309268E5
345 345 1.74398436E6
345 346 -8.7089168E5
346 345 -8.7309268E5
346 346 1.74398436E6
346 347 -8.7089168E5
347 346 -8.7309268E5
347 347 1.74398436E6
347 348 -8.7089168E5
348 347 -8.7309268E5
348 348 1.74398436E6
348 349 -8.7089168E5
349 348 -8.7309268E5
349 349 1.74398436E6
349 350 -8.7089168E5
350 349 -8.7309268E5
350 350 1.74398436E6
350 351 -8.7089168E5
351 350 -8.7309268E5
351 351 1.74398436E6
351 352 -8.7089168E5
352 351 -8.7309268E5
352 352 1.74398436E6
352 353 -8.7089168E5
353 352 -8.7309268E5
353 353 1.74398436E6
353 354 -8.7089168E5
354 353 -8.7309268E5
354 354 1.74398436E6
354 355 -8.7089168E5
355 354 -8.7309268E5
355 355 1.74398436E6
355 356 -8.7089168E5
356 355 -8.7309268E5
356 356 1.74398436E6
356 357 -8.7089168E5
357 356 -8.7309268E5
357 357 1.74398436E6
357 358 -8.7089168E5
358 357 -8.7309268E5
358 358 1.74398436E6
358 359 -8.7089168E5
359 358 -8.7309268E5
359 359 1.74398436E6
359 360 -8.7089168E5
360 359 -8.7309268E5
360 360 1.74398436E6
360 361 -8.7089168E5
361 360 -8.7309268E5
361 361 1.74398436E6
361 362 -8.7089168E5
362 361 -8.7309268E5
362 362 1.74398436E6
362 363 -8.7089168E5
363 362 -8.7309268E5
363 363 1.74398436E6
363 364 -8.7089168E5
364 363 -8.7309268E5
364 364 1.74398436E6
364 365 -8.7089168E5
365 364 -8.7309268E5
365 365 1.74398436E6
365 366 -8.7089168E5
366 365 -8.7309268E5
366 366 1.74398436E6
366 367 -8.7089168E5
367 366 -8.7309268E5
367 367 1.74398436E6
367 368 -8.7089168E5
368 367 -8.7309268E5
368 368 1.74398436E6
368 369 -8.7089168E5
369 368 -8.7309268E5
369 369 1.74398436E6
369 370 -8.7089168E5
370 369 -8.7309268E5
370 370 1.74398436E6
370 371 -8.7089168E5
371 370 -8.7309268E5
371 371 1.74398436E6
371 372 -8.7089168E5
372 371 -8.7309268E5
372 372 1.74398436E6
372 373 -8.7089168E5
373 372 -8.7309268E5
373 373 1.74398436E6
373 374 -8.7089168E5
374 373 -8.7309268E5
374 374 1.74398436E6
374 375 -8.7089168E5
375 374 -8.7309268E5
375 375 1.74398436E6
375 376 -8.7089168E5
376 375 -8.7309268E5
376 376 1.74398436E6
376 377 -8.7089168E5
377 376 -8.7309268E5
377 377 1.74398436E6
377 378 -8.7089168E5
378 377 -8.7309268E5
378 378 1.74398436E6
378 379 -8.7089168E5
379 378 -8.7309268E5
379 379 1.74398436E6
379 380 -8.7089168E5
380 379 -8.7309268E5
380 380 1.74398436E6
380 381 -8.7089168E5
381 380 -8.7309268E5
381 381 1.74398436E6
381 382 -8.7089168E5
382 381 -8.7309268E5
382 382 1.74398436E6
382 383 -8.7089168E5
383 382 -8.7309268E5
383 383 1.74398436E6
383 384 -8.7089168E5
384 383 -8.7309268E5
384 384 1.74398436E6
384 385 -8.7089168E5
385 384 -8.7309268E5
385 385 1.74398436E6
385 386 -8.7089168E5
386 385 -8.7309268E5
386 386 1.74398436E6
386 387 -8.7089168E5
387 386 -8.7309268E5
387 387 1.74398436E6
387 388 -8.7089168E5
388 387 -8.7309268E5
388 388 1.74398436E6
388 389 -8.7089168E5
389 388 -8.7309268E5
389 389 1.74398436E6
389 390 -8.7089168E5
390 389 -8.7309268E5
390 390 1.74398436E6
390 391 -8.7089168E5
391 390 -8.7309268E5
391 391 1.74398436E6
391 392 -8.7089168E5
392 391 -8.7309268E5
392 392 1.74398436E6
392 393 -8.7089168E5
393 392 -8.7309268E5
393 393 1.74398436E6
393 394 -8.7089168E5
394 393 -8.7309268E5
394 394 1.74398436E6
394 395 -8.7089168E5
395 394 -8.7309268E5
395 395 1.74398436E6
395 396 -8.7089168E5
396 395 -8.7309268E5
396 396 1.74398436E6
396 397 -8.7089168E5
397 396 -8.7309268E5
397 397 1.74398436E6
397 398 -8.7089168E5
398 397 -8.7309268E5
398 398 1.74398436E6
398 399 -8.7089168E5
399 398 -8.7309268E5
399 399 1.74398436E6
399 400 -8.7089168E5
400 399 -8.7309268E5
400 400 1.74398436E6
400 401 -8.7089168E5
401 400 -8.7309268E5
401 401 1.74398436E6
401 402 -8.7089168E5
402 401 -8.7309268E5
402 402 1.74398436E6
402 403 -8.7089168E5
403 402 -8.7309268E5
403 403 1.74398436E6
403 404 -8.7089168E5
404 403 -8.7309268E5
404 404 1.74398436E6
404 405 -8.7089168E5
405 404 -8.7309268E5
405 405 1.74398436E6
405 406 -8.7089168E5
406 405 -8.7309268E5
406 406 1.74398436E6
406 407 -8.7089168E5
407 406 -8.7309268E5
407 407 1.74398436E6
407 408 -8.7089168E5
408 407 -8.7309268E5
408 408 1.74398436E6
408 409 -8.7089168E5
409 408 -8.7309268E5
409 409 1.74398436E6
409 410 -8.7089168E5
410 409 -8.7309268E5
410 410 1.74398436E6
410 411 -8.7089168E5
411 410 -8.7309268E5
411 411 1.74398436E6
411 412 -8.7089168E5
412 411 -8.7309268E5
412 412 1.74398436E6
412 413 -8.7089168E5
413 412 -8.7309268E5
413 413 1.74398436E6
413 414 -8.7089168E5
414 413 -8.7309268E5
414 414 1.74398436E6
414 415 -8.7089168E5
415 414 -8.7309268E5
415 415 1.74398436E6
415 416 -8.7089168E5
416 415 -8.7309268E5
416 416 1.74398436E6
416 417 -8.7089168E5
417 416 -8.7309268E5
417 417 1.74398436E6
417 418 -8.7089168E5
418 417 -8.7309268E5
418 418 1.74398436E6
418 419 -8.7089168E5
419 418 -8.7309268E5
419 419 1.74398436E6
419 420 -8.7089168E5
420 419 -8.7309268E5
420 420 1.74398436E6
420 421 -8.7089168E5
421 420 -8.7309268E5
421 421 1.74398436E6
421 422 -8.7089168E5
422 421 -8.7309268E5
422 422 1.74398436E6
422 423 -8.7089168E5
423 422 -8.7309268E5
423 423 1.74398436E6
423 424 -8.7089168E5
424 423 -8.7309268E5
424 424 1.74398436E6
424 425 -8.7089168E5
425 424 -8.7309268E5
425 425 1.74398436E6
425 426 -8.7089168E5
426 425 -8.7309268E5
426 426 1.74398436E6
426 427 -8.7089168E5
427 426 -8.7309268E5
427 427 1.74398436E6
427 428 -8.7089168E5
428 427 -8.7309268E5
428 428 1.74398436E6
428 429 -8.7089168E5
429 428 -8.7309268E5
429 429 1.74398436E6
429 430 -8.7089168E5
430 429 -8.7309268E5
430 430 1.74398436E6
430 431 -8.7089168E5
431 430 -8.7309268E5
431 431 1.74398436E6
431 432 -8.7089168E5
432 431 -8.7309268E5
432 432 1.74398436E6
432 433 -8.7089168E5
433 432 -8.7309268E5
433 433 1.74398436E6
433 434 -8.7089168E5
434 433 -8.7309268E5
434 434 1.74398436E6
434 435 -8.7089168E5
435 434 -8.7309268E5
435 435 1.74398436E6
435 436 -8.7089168E5
436 435 -8.7309268E5
436 436 1.74398436E6
436 437 -8.7089168E5
437 436 -8.7309268E5
437 437 1.74398436E6
437 438 -8.7089168E5
438 437 -8.7309268E5
438 438 1.74398436E6
438 439 -8.7089168E5
439 438 -8.7309268E5
439 439 1.74398436E6
439 440 -8.7089168E5
440 439 -8.7309268E5
440 440 1.74398436E6
440 441 -8.7089168E5
441 440 -8.7309268E5
441 441 1.74398436E6
441 442 -8.7089168E5
442 441 -8.7309268E5
442 442 1.74398436E6
442 443 -8.7089168E5
443 442 -8.7309268E5
443 443 1.74398436E6
443 444 -8.7089168E5
444 443 -8.7309268E5
444 444 1.74398436E6
444 445 -8.7089168E5
445 444 -8.7309268E5
445 445 1.74398436E6
445 446 -8.7089168E5
446 445 -8.7309268E5
446 446 1.74398436E6
446 447 -8.7089168E5
447 446 -8.7309268E5
447 447 1.74398436E6
447 448 -8.7089168E5
448 447 -8.7309268E5
448 448 1.74398436E6
448 449 -8.7089168E5
449 448 -8.7309268E5
449 449 1.74398436E6
449 450 -8.7089168E5
450 449 -8.7309268E5
450 450 1.74398436E6
450 451 -8.7089168E5
451 450 -8.7309268E5
451 451 1.74398436E6
451 452 -8.7089168E5
452 451 -8.7309268E5
452 452 1.74398436E6
452 453 -8.7089168E5
453 452 -8.7309268E5
453 453 1.74398436E6
453 454 -8.7089168E5
454 453 -8.7309268E5
454 454 1.74398436E6
454 455 -8.7089168E5
455 454 -8.7309268E5
455 455 1.74398436E6
455 456 -8.7089168E5
456 455 -8.7309268E5
456 456 1.74398436E6
456 457 -8.7089168E5
457 456 -8.7309268E5
457 457 1.74398436E6
457 458 -8.7089168E5
458 457 -8.7309268E5
458 458 1.74398436E6
458 459 -8.7089168E5
459 458 -8.7309268E5
459 459 1.74398436E6
459 460 -8.7089168E5
460 459 -8.7309268E5
460 460 1.74398436E6
460 461 -8.7089168E5
461 460 -8.7309268E5
461 461 1.74398436E6
461 462 -8.7089168E5
462 461 -8.7309268E5
462 462 1.74398436E6
462 463 -8.7089168E5
463 462 -8.7309268E5
463 463 1.74398436E6
463 464 -8.7089168E5
464 463 -8.7309268E5
464 464 1.74398436E6
464 465 -8.7089168E5
465 464 -8.7309268E5
465 465 1.74398436E6
465 466 -8.7089168E5
466 465 -8.7309268E5
466 466 1.74398436E6
466 467 -8.7089168E5
467 466 -8.7309268E5
467 467 1.74398436E6
467 468 -8.7089168E5
468 467 -8.7309268E5
468 468 1.74398436E6
468 469 -8.7089168E5
469 468 -8.7309268E5
469 469 1.74398436E6
469 470 -8.7089168E5
470 469 -8.7309268E5
470 470 1.74398436E6
470 471 -8.7089168E5
471 470 -8.7309268E5
471 471 1.74398436E6
471 472 -8.7089168E5
472 471 -8.7309268E5
472 472 1.74398436E6
472 473 -8.7089168E5
473 472 -8.7309268E5
473 473 1.74398436E6
473 474 -8.7089168E5
474 473 -8.7309268E5
474 474 1.74398436E6
474 475 -8.7089168E5
475 474 -8.7309268E5
475 475 1.74398436E6
475 476 -8.7089168E5
476 475 -8.7309268E5
476 476 1.74398436E6
476 477 -8.7089168E5
477 476 -8.7309268E5
477 477 1.74398436E6
477 478 -8.7089168E5
478 477 -8.7309268E5
478 478 1.74398436E6
478 479 -8.7089168E5
479 478 -8.7309268E5
479 479 1.74398436E6
479 480 -8.7089168E5
480 479 -8.7309268E5
480 480 1.74398436E6
480 481 -8.7089168E5
481 480 -8.7309268E5
481 481 1.74398436E6
481 482 -8.7089168E5
482 481 -8.7309268E5
482 482 1.74398436E6
482 483 -8.7089168E5
483 482 -8.7309268E5
483 483 1.74398436E6
483 484 -8.7089168E5
484 483 -8.7309268E5
484 484 1.74398436E6
484 485 -8.7089168E5
485 484 -8.7309268E5
485 485 1.74398436E6
485 486 -8.7089168E5
486 485 -8.7309268E5
486 486 1.74398436E6
486 487 -8.7089168E5
487 486 -8.7309268E5
487 487 1.74398436E6
487 488 -8.7089168E5
488 487 -8.7309268E5
488 488 1.74398436E6
488 489 -8.7089168E5
489 488 -8.7309268E5
489 489 1.74398436E6
489 490 -8.7089168E5
490 489 -8.7309268E5
490 490 1.74398436E6
490 491 -8.7089168E5
491 490 -8.7309268E5
491 491 1.74398436E6
491 492 -8.7089168E5
492 491 -8.7309268E5
492 492 1.74398436E6
492 493 -8.7089168E5
493 492 -8.7309268E5
493 493 1.74398436E6
493 494 -8.7089168E5
494 493 -8.7309268E5
494 494 1.74398436E6
494 495 -8.7089168E5
495 494 -8.7309268E5
495 495 1.74398436E6
495 496 -8.7089168E5
496 495 -8.7309268E5
496 496 1.74398436E6
496 497 -8.7089168E5
497 496 -8.7309268E5
497 497 1.74398436E6
497 498 -8.7089168E5
498 497 -8.7309268E5
498 498 1.74398436E6
498 499 -8.7089168E5
499 498 -8.7309268E5
499 499 1.74398436E6
499 500 -8.7089168E5
500 499 -8.7309268E5
500 500 1.74398436E6
500 501 -8.7089168E5
501 500 -8.7309268E5
501 501 1.74398436E6
501 502 -8.7089168E5
502 501 -8.7309268E5
502 502 1.74398436E6
502 503 -8.7089168E5
503 502 -8.7309268E5
503 503 1.74398436E6
503 504 -8.7089168E5
504 503 -8.7309268E5
504 504 1.74398436E6
504 505 -8.7089168E5
505 504 -8.7309268E5
505 505 1.74398436E6
505 506 -8.7089168E5
506 505 -8.7309268E5
506 506 1.74398436E6
506 507 -8.7089168E5
507 506 -8.7309268E5
507 507 1.74398436E6
507 508 -8.7089168E5
508 507 -8.7309268E5
508 508 1.74398436E6
508 509 -8.7089168E5
509 508 -8.7309268E5
509 509 1.74398436E6
509 510 -8.7089168E5
510 509 -8.7309268E5
510 510 1.74398436E6
510 511 -8.7089168E5
511 510 -8.7309268E5
511 511 1.74398436E6
511 512 -8.7089168E5
512 511 -8.7309268E5
512 512 1.74398436E6
512 513 -8.7089168E5
513 512 -8.7309268E5
513 513 1.74398436E6
513 514 -8.7089168E5
514 513 -8.7309268E5
514 514 1.74398436E6
514 515 -8.7089168E5
515 514 -8.7309268E5
515 515 1.74398436E6
515 516 -8.7089168E5
516 515 -8.7309268E5
516 516 1.74398436E6
516 517 -8.7089168E5
517 516 -8.7309268E5
517 517 1.74398436E6
517 518 -8.7089168E5
518 517 -8.7309268E5
518 518 1.74398436E6
518 519 -8.7089168E5
519 518 -8.7309268E5
519 519 1.74398436E6
519 520 -8.7089168E5
520 519 -8.7309268E5
520 520 1.74398436E6
520 521 -8.7089168E5
521 520 -8.7309268E5
521 521 1.74398436E6
521 522 -8.7089168E5
522 521 -8.7309268E5
522 522 1.74398436E6
522 523 -8.7089168E5
523 522 -8.7309268E5
523 523 1.74398436E6
523 524 -8.7089168E5
524 523 -8.7309268E5
524 524 1.74398436E6
524 525 -8.7089168E5
525 524 -8.7309268E5
525 525 1.74398436E6
525 526 -8.7089168E5
526 525 -8.7309268E5
526 526 1.74398436E6
526 527 -8.7089168E5
527 526 -8.7309268E5
527 527 1.74398436E6
527 528 -8.7089168E5
528 527 -8.7309268E5
528 528 1.74398436E6
528 529 -8.7089168E5
529 528 -8.7309268E5
529 529 1.74398436E6
529 530 -8.7089168E5
530 529 -8.7309268E5
530 530 1.74398436E6
530 531 -8.7089168E5
531 530 -8.7309268E5
531 531 1.74398436E6
531 532 -8.7089168E5
532 531 -8.7309268E5
532 532 1.74398436E6
532 533 -8.7089168E5
533 532 -8.7309268E5
533 533 1.74398436E6
533 534 -8.7089168E5
534 533 -8.7309268E5
534 534 1.74398436E6
534 535 -8.7089168E5
535 534 -8.7309268E5
535 535 1.74398436E6
535 536 -8.7089168E5
536 535 -8.7309268E5
536 536 1.74398436E6
536 537 -8.7089168E5
537 536 -8.7309268E5
537 537 1.74398436E6
537 538 -8.7089168E5
538 537 -8.7309268E5
538 538 1.74398436E6
538 539 -8.7089168E5
539 538 -8.7309268E5
539 539 1.74398436E6
539 540 -8.7089168E5
540 539 -8.7309268E5
540 540 1.74398436E6
540 541 -8.7089168E5
541 540 -8.7309268E5
541 541 1.74398436E6
541 542 -8.7089168E5
542 541 -8.7309268E5
542 542 1.74398436E6
542 543 -8.7089168E5
543 542 -8.7309268E5
543 543 1.74398436E6
543 544 -8.7089168E5
544 543 -8.7309268E5
544 544 1.74398436E6
544 545 -8.7089168E5
545 544 -8.7309268E5
545 545 1.74398436E6
545 546 -8.7089168E5
546 545 -8.7309268E5
546 546 1.74398436E6
546 547 -8.7089168E5
547 546 -8.7309268E5
547 547 1.74398436E6
547 548 -8.7089168E5
548 547 -8.7309268E5
548 548 1.74398436E6
548 549 -8.7089168E5
549 548 -8.7309268E5
549 549 1.74398436E6
549 550 -8.7089168E5
550 549 -8.7309268E5
550 550 1.74398436E6
550 551 -8.7089168E5
551 550 -8.7309268E5
551 551 1.74398436E6
551 552 -8.7089168E5
552 551 -8.7309268E5
552 552 1.74398436E6
552 553 -8.7089168E5
553 552 -8.7309268E5
553 553 1.74398436E6
553 554 -8.7089168E5
554 553 -8.7309268E5
554 554 1.74398436E6
554 555 -8.7089168E5
555 554 -8.7309268E5
555 555 1.74398436E6
555 556 -8.7089168E5
556 555 -8.7309268E5
556 556 1.74398436E6
556 557 -8.7089168E5
557 556 -8.7309268E5
557 557 1.74398436E6
557 558 -8.7089168E5
558 557 -8.7309268E5
558 558 1.74398436E6
558 559 -8.7089168E5
559 558 -8.7309268E5
559 559 1.74398436E6
559 560 -8.7089168E5
560 559 -8.7309268E5
560 560 1.74398436E6
560 561 -8.7089168E5
561 560 -8.7309268E5
561 561 1.74398436E6
561 562 -8.7089168E5
562 561 -8.7309268E5
562 562 1.74398436E6
562 563 -8.7089168E5
563 562 -8.7309268E5
563 563 1.74398436E6
563 564 -8.7089168E5
564 563 -8.7309268E5
564 564 1.74398436E6
564 565 -8.7089168E5
565 564 -8.7309268E5
565 565 1.74398436E6
565 566 -8.7089168E5
566 565 -8.7309268E5
566 566 1.74398436E6
566 567 -8.7089168E5
567 566 -8.7309268E5
567 567 1.74398436E6
567 568 -8.7089168E5
568 567 -8.7309268E5
568 568 1.74398436E6
568 569 -8.7089168E5
569 568 -8.7309268E5
569 569 1.74398436E6
569 570 -8.7089168E5
570 569 -8.7309268E5
570 570 1.74398436E6
570 571 -8.7089168E5
571 570 -8.7309268E5
571 571 1.74398436E6
571 572 -8.7089168E5
572 571 -8.7309268E5
572 572 1.74398436E6
572 573 -8.7089168E5
573 572 -8.7309268E5
573 573 1.74398436E6
573 574 -8.7089168E5
574 573 -8.7309268E5
574 574 1.74398436E6
574 575 -8.7089168E5
575 574 -8.7309268E5
575 575 1.74398436E6
575 576 -8.7089168E5
576 575 -8.7309268E5
576 576 1.74398436E6
576 577 -8.7089168E5
577 576 -8.7309268E5
577 577 1.74398436E6
577 578 -8.7089168E5
578 577 -8.7309268E5
578 578 1.74398436E6
578 579 -8.7089168E5
579 578 -8.7309268E5
579 579 1.74398436E6
579 580 -8.7089168E5
580 579 -8.7309268E5
580 580 1.74398436E6
580 581 -8.7089168E5
581 580 -8.7309268E5
581 581 1.74398436E6
581 582 -8.7089168E5
582 581 -8.7309268E5
582 582 1.74398436E6
582 583 -8.7089168E5
583 582 -8.7309268E5
583 583 1.74398436E6
583 584 -8.7089168E5
584 583 -8.7309268E5
584 584 1.74398436E6
584 585 -8.7089168E5
585 584 -8.7309268E5
585 585 1.74398436E6
585 586 -8.7089168E5
586 585 -8.7309268E5
586 586 1.74398436E6
586 587 -8.7089168E5
587 586 -8.7309268E5
587 587 1.74398436E6
587 588 -8.7089168E5
588 587 -8.7309268E5
588 588 1.74398436E6
588 589 -8.7089168E5
589 588 -8.7309268E5
589 589 1.74398436E6
589 590 -8.7089168E5
590 589 -8.7309268E5
590 590 1.74398436E6
590 591 -8.7089168E5
591 590 -8.7309268E5
591 591 1.74398436E6
591 592 -8.7089168E5
592 591 -8.7309268E5
592 592 1.74398436E6
592 593 -8.7089168E5
593 592 -8.7309268E5
593 593 1.74398436E6
593 594 -8.7089168E5
594 593 -8.7309268E5
594 594 1.74398436E6
594 595 -8.7089168E5
595 594 -8.7309268E5
595 595 1.74398436E6
595 596 -8.7089168E5
596 595 -8.7309268E5
596 596 1.74398436E6
596 597 -8.7089168E5
597 596 -8.7309268E5
597 597 1.74398436E6
597 598 -8.7089168E5
598 597 -8.7309268E5
598 598 1.74398436E6
598 599 -8.7089168E5
599 598 -8.7309268E5
599 599 1.74398436E6
599 600 -8.7089168E5
600 599 -8.7309268E5
600 600 1.74398436E6
600 601 -8.7089168E5
601 600 -8.7309268E5
601 601 1.74398436E6
601 602 -8.7089168E5
602 601 -8.7309268E5
602 602 1.74398436E6
602 603 -8.7089168E5
603 602 -8.7309268E5
603 603 1.74398436E6
603 604 -8.7089168E5
604 603 -8.7309268E5
604 604 1.74398436E6
604 605 -8.7089168E5
605 604 -8.7309268E5
605 605 1.74398436E6
605 606 -8.7089168E5
606 605 -8.7309268E5
606 606 1.74398436E6
606 607 -8.7089168E5
607 606 -8.7309268E5
607 607 1.74398436E6
607 608 -8.7089168E5
608 607 -8.7309268E5
608 608 1.74398436E6
608 609 -8.7089168E5
609 608 -8.7309268E5
609 609 1.74398436E6
609 610 -8.7089168E5
610 609 -8.7309268E5
610 610 1.74398436E6
610 611 -8.7089168E5
611 610 -8.7309268E5
611 611 1.74398436E6
611 612 -8.7089168E5
612 611 -8.7309268E5
612 612 1.74398436E6
612 613 -8.7089168E5
613 612 -8.7309268E5
613 613 1.74398436E6
613 614 -8.7089168E5
614 613 -8.7309268E5
614 614 1.74398436E6
614 615 -8.7089168E5
615 614 -8.7309268E5
615 615 1.74398436E6
615 616 -8.7089168E5
616 615 -8.7309268E5
616 616 1.74398436E6
616 617 -8.7089168E5
617 616 -8.7309268E5
617 617 1.74398436E6
617 618 -8.7089168E5
618 617 -8.7309268E5
618 618 1.74398436E6
618 619 -8.7089168E5
619 618 -8.7309268E5
619 619 1.74398436E6
619 620 -8.7089168E5
620 619 -8.7309268E5
620 620 1.74398436E6
620 621 -8.7089168E5
621 620 -8.7309268E5
621 621 1.74398436E6
621 622 -8.7089168E5
622 621 -8.7309268E5
622 622 1.74398436E6
622 623 -8.7089168E5
623 622 -8.7309268E5
623 623 1.74398436E6
623 624 -8.7089168E5
624 623 -8.7309268E5
624 624 1.74398436E6
624 625 -8.7089168E5
625 624 -8.7309268E5
625 625 1.74398436E6
625 626 -8.7089168E5
626 625 -8.7309268E5
626 626 1.74398436E6
626 627 -8.7089168E5
627 626 -8.7309268E5
627 627 1.74398436E6
627 628 -8.7089168E5
628 627 -8.7309268E5
628 628 1.74398436E6
628 629 -8.7089168E5
629 628 -8.7309268E5
629 629 1.74398436E6
629 630 -8.7089168E5
630 629 -8.7309268E5
630 630 1.74398436E6
630 631 -8.7089168E5
631 630 -8.7309268E5
631 631 1.74398436E6
631 632 -8.7089168E5
632 631 -8.7309268E5
632 632 1.74398436E6
632 633 -8.7089168E5
633 632 -8.7309268E5
633 633 1.74398436E6
633 634 -8.7089168E5
634 633 -8.7309268E5
634 634 1.74398436E6
634 635 -8.7089168E5
635 634 -8.7309268E5
635 635 1.74398436E6
635 636 -8.7089168E5
636 635 -8.7309268E5
636 636 1.74398436E6
636 637 -8.7089168E5
637 636 -8.7309268E5
637 637 1.74398436E6
637 638 -8.7089168E5
638 637 -8.7309268E5
638 638 1.74398436E6
638 639 -8.7089168E5
639 638 -8.7309268E5
639 639 1.74398436E6
639 640 -8.7089168E5
640 639 -8.7309268E5
640 640 1.74398436E6
640 641 -8.7089168E5
641 640 -8.7309268E5
641 641 1.74398436E6
641 642 -8.7089168E5
642 641 -8.7309268E5
642 642 1.74398436E6
642 643 -8.7089168E5
643 642 -8.7309268E5
643 643 1.74398436E6
643 644 -8.7089168E5
644 643 -8.7309268E5
644 644 1.74398436E6
644 645 -8.7089168E5
645 644 -8.7309268E5
645 645 1.74398436E6
645 646 -8.7089168E5
646 645 -8.7309268E5
646 646 1.74398436E6
646 647 -8.7089168E5
647 646 -8.7309268E5
647 647 1.74398436E6
647 648 -8.7089168E5
648 647 -8.7309268E5
648 648 1.74398436E6
648 649 -8.7089168E5
649 648 -8.7309268E5
649 649 1.74398436E6
649 650 -8.7089168E5
650 649 -8.7309268E5
650 650 1.74398436E6
650 651 -8.7089168E5
651 650 -8.7309268E5
651 651 1.74398436E6
651 652 -8.7089168E5
652 651 -8.7309268E5
652 652 1.74398436E6
652 653 -8.7089168E5
653 652 -8.7309268E5
653 653 1.74398436E6
653 654 -8.7089168E5
654 653 -8.7309268E5
654 654 1.74398436E6
654 655 -8.7089168E5
655 654 -8.7309268E5
655 655 1.74398436E6
655 656 -8.7089168E5
656 655 -8.7309268E5
656 656 1.74398436E6
656 657 -8.7089168E5
657 656 -8.7309268E5
657 657 1.74398436E6
657 658 -8.7089168E5
658 657 -8.7309268E5
658 658 1.74398436E6
658 659 -8.7089168E5
659 658 -8.7309268E5
659 659 1.74398436E6
659 660 -8.7089168E5
660 659 -8.7309268E5
660 660 1.74398436E6
660 661 -8.7089168E5
661 660 -8.7309268E5
661 661 1.74398436E6
661 662 -8.7089168E5
662 661 -8.7309268E5
662 662 1.74398436E6
662 663 -8.7089168E5
663 662 -8.7309268E5
663 663 1.74398436E6
663 664 -8.7089168E5
664 663 -8.7309268E5
664 664 1.74398436E6
664 665 -8.7089168E5
665 664 -8.7309268E5
665 665 1.74398436E6
665 666 -8.7089168E5
666 665 -8.7309268E5
666 666 1.74398436E6
666 667 -8.7089168E5
667 666 -8.7309268E5
667 667 1.74398436E6
667 668 -8.7089168E5
668 667 -8.7309268E5
668 668 1.74398436E6
668 669 -8.7089168E5
669 668 -8.7309268E5
669 669 1.74398436E6
669 670 -8.7089168E5
670 669 -8.7309268E5
670 670 1.74398436E6
670 671 -8.7089168E5
671 670 -8.7309268E5
671 671 1.74398436E6
671 672 -8.7089168E5
672 671 -8.7309268E5
672 672 1.74398436E6
672 673 -8.7089168E5
673 672 -8.7309268E5
673 673 1.74398436E6
673 674 -8.7089168E5
674 673 -8.7309268E5
674 674 1.74398436E6
674 675 -8.7089168E5
675 674 -8.7309268E5
675 675 1.74398436E6
675 676 -8.7089168E5
676 675 -8.7309268E5
676 676 1.74398436E6
676 677 -8.7089168E5
677 676 -8.7309268E5
677 677 1.74398436E6
677 678 -8.7089168E5
678 677 -8.7309268E5
678 678 1.74398436E6
678 679 -8.7089168E5
679 678 -8.7309268E5
679 679 1.74398436E6
679 680 -8.7089168E5
680 679 -8.7309268E5
680 680 1.74398436E6
680 681 -8.7089168E5
681 680 -8.7309268E5
681 681 1.74398436E6
681 682 -8.7089168E5
682 681 -8.7309268E5
682 682 1.74398436E6
682 683 -8.7089168E5
683 682 -8.7309268E5
683 683 1.74398436E6
683 684 -8.7089168E5
684 683 -8.7309268E5
684 684 1.74398436E6
684 685 -8.7089168E5
685 684 -8.7309268E5
685 685 1.74398436E6
685 686 -8.7089168E5
686 685 -8.7309268E5
686 686 1.74398436E6
686 687 -8.7089168E5
687 686 -8.7309268E5
687 687 1.74398436E6
687 688 -8.7089168E5
688 687 -8.7309268E5
688 688 1.74398436E6
688 689 -8.7089168E5
689 688 -8.7309268E5
689 689 1.74398436E6
689 690 -8.7089168E5
690 689 -8.7309268E5
690 690 1.74398436E6
690 691 -8.7089168E5
691 690 -8.7309268E5
691 691 1.74398436E6
691 692 -8.7089168E5
692 691 -8.7309268E5
692 692 1.74398436E6
692 693 -8.7089168E5
693 692 -8.7309268E5
693 693 1.74398436E6
693 694 -8.7089168E5
694 693 -8.7309268E5
694 694 1.74398436E6
694 695 -8.7089168E5
695 694 -8.7309268E5
695 695 1.74398436E6
695 696 -8.7089168E5
696 695 -8.7309268E5
696 696 1.74398436E6
696 697 -8.7089168E5
697 696 -8.7309268E5
697 697 1.74398436E6
697 698 -8.7089168E5
698 697 -8.7309268E5
698 698 1.74398436E6
698 699 -8.7089168E5
699 698 -8.7309268E5
699 699 1.74398436E6
699 700 -8.7089168E5
700 699 -8.7309268E5
700 700 1.74398436E6
700 701 -8.7089168E5
701 700 -8.7309268E5
701 701 1.74398436E6
701 702 -8.7089168E5
702 701 -8.7309268E5
702 702 1.74398436E6
702 703 -8.7089168E5
703 702 -8.7309268E5
703 703 1.74398436E6
703 704 -8.7089168E5
704 703 -8.7309268E5
704 704 1.74398436E6
704 705 -8.7089168E5
705 704 -8.7309268E5
705 705 1.74398436E6
705 706 -8.7089168E5
706 705 -8.7309268E5
706 706 1.74398436E6
706 707 -8.7089168E5
707 706 -8.7309268E5
707 707 1.74398436E6
707 708 -8.7089168E5
708 707 -8.7309268E5
708 708 1.74398436E6
708 709 -8.7089168E5
709 708 -8.7309268E5
709 709 1.74398436E6
709 710 -8.7089168E5
710 709 -8.7309268E5
710 710 1.74398436E6
710 711 -8.7089168E5
711 710 -8.7309268E5
711 711 1.74398436E6
711 712 -8.7089168E5
712 711 -8.7309268E5
712 712 1.74398436E6
712 713 -8.7089168E5
713 712 -8.7309268E5
713 713 1.74398436E6
713 714 -8.7089168E5
714 713 -8.7309268E5
714 714 1.74398436E6
714 715 -8.7089168E5
715 714 -8.7309268E5
715 715 1.74398436E6
715 716 -8.7089168E5
716 715 -8.7309268E5
716 716 1.74398436E6
716 717 -8.7089168E5
717 716 -8.7309268E5
717 717 1.74398436E6
717 718 -8.7089168E5
718 717 -8.7309268E5
718 718 1.74398436E6
718 719 -8.7089168E5
719 718 -8.7309268E5
719 719 1.74398436E6
719 720 -8.7089168E5
720 719 -8.7309268E5
720 720 1.74398436E6
720 721 -8.7089168E5
721 720 -8.7309268E5
721 721 1.74398436E6
721 722 -8.7089168E5
722 721 -8.7309268E5
722 722 1.74398436E6
722 723 -8.7089168E5
723 722 -8.7309268E5
723 723 1.74398436E6
723 724 -8.7089168E5
724 723 -8.7309268E5
724 724 1.74398436E6
724 725 -8.7089168E5
725 724 -8.7309268E5
725 725 1.74398436E6
725 726 -8.7089168E5
726 725 -8.7309268E5
726 726 1.74398436E6
726 727 -8.7089168E5
727 726 -8.7309268E5
727 727 1.74398436E6
727 728 -8.7089168E5
728 727 -8.7309268E5
728 728 1.74398436E6
728 729 -8.7089168E5
729 728 -8.7309268E5
729 729 1.74398436E6
729 730 -8.7089168E5
730 729 -8.7309268E5
730 730 1.74398436E6
730 731 -8.7089168E5
731 730 -8.7309268E5
731 731 1.74398436E6
731 732 -8.7089168E5
732 731 -8.7309268E5
732 732 1.74398436E6
732 733 -8.7089168E5
733 732 -8.7309268E5
733 733 1.74398436E6
733 734 -8.7089168E5
734 733 -8.7309268E5
734 734 1.74398436E6
734 735 -8.7089168E5
735 734 -8.7309268E5
735 735 1.74398436E6
735 736 -8.7089168E5
736 735 -8.7309268E5
736 736 1.74398436E6
736 737 -8.7089168E5
737 736 -8.7309268E5
737 737 1.74398436E6
737 738 -8.7089168E5
738 737 -8.7309268E5
738 738 1.74398436E6
738 739 -8.7089168E5
739 738 -8.7309268E5
739 739 1.74398436E6
739 740 -8.7089168E5
740 739 -8.7309268E5
740 740 1.74398436E6
740 741 -8.7089168E5
741 740 -8.7309268E5
741 741 1.74398436E6
741 742 -8.7089168E5
742 741 -8.7309268E5
742 742 1.74398436E6
742 743 -8.7089168E5
743 742 -8.7309268E5
743 743 1.74398436E6
743 744 -8.7089168E5
744 743 -8.7309268E5
744 744 1.74398436E6
744 745 -8.7089168E5
745 744 -8.7309268E5
745 745 1.74398436E6
745 746 -8.7089168E5
746 745 -8.7309268E5
746 746 1.74398436E6
746 747 -8.7089168E5
747 746 -8.7309268E5
747 747 1.74398436E6
747 748 -8.7089168E5
748 747 -8.7309268E5
748 748 1.74398436E6
748 749 -8.7089168E5
749 748 -8.7309268E5
749 749 1.74398436E6
749 750 -8.7089168E5
750 749 -8.7309268E5
750 750 1.74398436E6
750 751 -8.7089168E5
751 750 -8.7309268E5
751 751 1.74398436E6
751 752 -8.7089168E5
752 751 -8.7309268E5
752 752 1.74398436E6
752 753 -8.7089168E5
753 752 -8.7309268E5
753 753 1.74398436E6
753 754 -8.7089168E5
754 753 -8.7309268E5
754 754 1.74398436E6
754 755 -8.7089168E5
755 754 -8.7309268E5
755 755 1.74398436E6
755 756 -8.7089168E5
756 755 -8.7309268E5
756 756 1.74398436E6
756 757 -8.7089168E5
757 756 -8.7309268E5
757 757 1.74398436E6
757 758 -8.7089168E5
758 757 -8.7309268E5
758 758 1.74398436E6
758 759 -8.7089168E5
759 758 -8.7309268E5
759 759 1.74398436E6
759 760 -8.7089168E5
760 759 -8.7309268E5
760 760 1.74398436E6
760 761 -8.7089168E5
761 760 -8.7309268E5
761 761 1.74398436E6
761 762 -8.7089168E5
762 761 -8.7309268E5
762 762 1.74398436E6
762 763 -8.7089168E5
763 762 -8.7309268E5
763 763 1.74398436E6
763 764 -8.7089168E5
764 763 -8.7309268E5
764 764 1.74398436E6
764 765 -8.7089168E5
765 764 -8.7309268E5
765 765 1.74398436E6
765 766 -8.7089168E5
766 765 -8.7309268E5
766 766 1.74398436E6
766 767 -8.7089168E5
767 766 -8.7309268E5
767 767 1.74398436E6
767 768 -8.7089168E5
768 767 -8.7309268E5
768 768 1.74398436E6
768 769 -8.7089168E5
769 768 -8.7309268E5
769 769 1.74398436E6
769 770 -8.7089168E5
770 769 -8.7309268E5
770 770 1.74398436E6
770 771 -8.7089168E5
771 770 -8.7309268E5
771 771 1.74398436E6
771 772 -8.7089168E5
772 771 -8.7309268E5
772 772 1.74398436E6
772 773 -8.7089168E5
773 772 -8.7309268E5
773 773 1.74398436E6
773 774 -8.7089168E5
774 773 -8.7309268E5
774 774 1.74398436E6
774 775 -8.7089168E5
775 774 -8.7309268E5
775 775 1.74398436E6
775 776 -8.7089168E5
776 775 -8.7309268E5
776 776 1.74398436E6
776 777 -8.7089168E5
777 776 -8.7309268E5
777 777 1.74398436E6
777 778 -8.7089168E5
778 777 -8.7309268E5
778 778 1.74398436E6
778 779 -8.7089168E5
779 778 -8.7309268E5
779 779 1.74398436E6
779 780 -8.7089168E5
780 779 -8.7309268E5
780 780 1.74398436E6
780 781 -8.7089168E5
781 780 -8.7309268E5
781 781 1.74398436E6
781 782 -8.7089168E5
782 781 -8.7309268E5
782 782 1.74398436E6
782 783 -8.7089168E5
783 782 -8.7309268E5
783 783 1.74398436E6
783 784 -8.7089168E5
784 783 -8.7309268E5
784 784 1.74398436E6
784 785 -8.7089168E5
785 784 -8.7309268E5
785 785 1.74398436E6
785 786 -8.7089168E5
786 785 -8.7309268E5
786 786 1.74398436E6
786 787 -8.7089168E5
787 786 -8.7309268E5
787 787 1.74398436E6
787 788 -8.7089168E5
788 787 -8.7309268E5
788 788 1.74398436E6
788 789 -8.7089168E5
789 788 -8.7309268E5
789 789 1.74398436E6
789 790 -8.7089168E5
790 789 -8.7309268E5
790 790 1.74398436E6
790 791 -8.7089168E5
791 790 -8.7309268E5
791 791 1.74398436E6
791 792 -8.7089168E5
792 791 -8.7309268E5
792 792 1.74398436E6
792 793 -8.7089168E5
793 792 -8.7309268E5
793 793 1.74398436E6
793 794 -8.7089168E5
794 793 -8.7309268E5
794 794 1.74398436E6
794 795 -8.7089168E5
795 794 -8.7309268E5
795 795 1.74398436E6
795 796 -8.7089168E5
796 795 -8.7309268E5
796 796 1.74398436E6
796 797 -8.7089168E5
797 796 -8.7309268E5
797 797 1.74398436E6
797 798 -8.7089168E5
798 797 -8.7309268E5
798 798 1.74398436E6
798 799 -8.7089168E5
799 798 -8.7309268E5
799 799 1.74398436E6
799 800 -8.7089168E5
800 799 -8.7309268E5
800 800 1.74398436E6
800 801 -8.7089168E5
801 800 -8.7309268E5
801 801 1.74398436E6
801 802 -8.7089168E5
802 801 -8.7309268E5
802 802 1.74398436E6
802 803 -8.7089168E5
803 802 -8.7309268E5
803 803 1.74398436E6
803 804 -8.7089168E5
804 803 -8.7309268E5
804 804 1.74398436E6
804 805 -8.7089168E5
805 804 -8.7309268E5
805 805 1.74398436E6
805 806 -8.7089168E5
806 805 -8.7309268E5
806 806 1.74398436E6
806 807 -8.7089168E5
807 806 -8.7309268E5
807 807 1.74398436E6
807 808 -8.7089168E5
808 807 -8.7309268E5
808 808 1.74398436E6
808 809 -8.7089168E5
809 808 -8.7309268E5
809 809 1.74398436E6
809 810 -8.7089168E5
810 809 -8.7309268E5
810 810 1.74398436E6
810 811 -8.7089168E5
811 810 -8.7309268E5
811 811 1.74398436E6
811 812 -8.7089168E5
812 811 -8.7309268E5
812 812 1.74398436E6
812 813 -8.7089168E5
813 812 -8.7309268E5
813 813 1.74398436E6
813 814 -8.7089168E5
814 813 -8.7309268E5
814 814 1.74398436E6
814 815 -8.7089168E5
815 814 -8.7309268E5
815 815 1.74398436E6
815 816 -8.7089168E5
816 815 -8.7309268E5
816 816 1.74398436E6
816 817 -8.7089168E5
817 816 -8.7309268E5
817 817 1.74398436E6
817 818 -8.7089168E5
818 817 -8.7309268E5
818 818 1.74398436E6
818 819 -8.7089168E5
819 818 -8.7309268E5
819 819 1.74398436E6
819 820 -8.7089168E5
820 819 -8.7309268E5
820 820 1.74398436E6
820 821 -8.7089168E5
821 820 -8.7309268E5
821 821 1.74398436E6
821 822 -8.7089168E5
822 821 -8.7309268E5
822 822 1.74398436E6
822 823 -8.7089168E5
823 822 -8.7309268E5
823 823 1.74398436E6
823 824 -8.7089168E5
824 823 -8.7309268E5
824 824 1.74398436E6
824 825 -8.7089168E5
825 824 -8.7309268E5
825 825 1.74398436E6
825 826 -8.7089168E5
826 825 -8.7309268E5
826 826 1.74398436E6
826 827 -8.7089168E5
827 826 -8.7309268E5
827 827 1.74398436E6
827 828 -8.7089168E5
828 827 -8.7309268E5
828 828 1.74398436E6
828 829 -8.7089168E5
829 828 -8.7309268E5
829 829 1.74398436E6
829 830 -8.7089168E5
830 829 -8.7309268E5
830 830 1.74398436E6
830 831 -8.7089168E5
831 830 -8.7309268E5
831 831 1.74398436E6
831 832 -8.7089168E5
832 831 -8.7309268E5
832 832 1.74398436E6
832 833 -8.7089168E5
833 832 -8.7309268E5
833 833 1.74398436E6
833 834 -8.7089168E5
834 833 -8.7309268E5
834 834 1.74398436E6
834 835 -8.7089168E5
835 834 -8.7309268E5
835 835 1.74398436E6
835 836 -8.7089168E5
836 835 -8.7309268E5
836 836 1.74398436E6
836 837 -8.7089168E5
837 836 -8.7309268E5
837 837 1.74398436E6
837 838 -8.7089168E5
838 837 -8.7309268E5
838 838 1.74398436E6
838 839 -8.7089168E5
839 838 -8.7309268E5
839 839 1.74398436E6
839 840 -8.7089168E5
840 839 -8.7309268E5
840 840 1.74398436E6
840 841 -8.7089168E5
841 840 -8.7309268E5
841 841 1.74398436E6
841 842 -8.7089168E5
842 841 -8.7309268E5
842 842 1.74398436E6
842 843 -8.7089168E5
843 842 -8.7309268E5
843 843 1.74398436E6
843 844 -8.7089168E5
844 843 -8.7309268E5
844 844 1.74398436E6
844 845 -8.7089168E5
845 844 -8.7309268E5
845 845 1.74398436E6
845 846 -8.7089168E5
846 845 -8.7309268E5
846 846 1.74398436E6
846 847 -8.7089168E5
847 846 -8.7309268E5
847 847 1.74398436E6
847 848 -8.7089168E5
848 847 -8.7309268E5
848 848 1.74398436E6
848 849 -8.7089168E5
849 848 -8.7309268E5
849 849 1.74398436E6
849 850 -8.7089168E5
850 849 -8.7309268E5
850 850 1.74398436E6
850 851 -8.7089168E5
851 850 -8.7309268E5
851 851 1.74398436E6
851 852 -8.7089168E5
852 851 -8.7309268E5
852 852 1.74398436E6
852 853 -8.7089168E5
853 852 -8.7309268E5
853 853 1.74398436E6
853 854 -8.7089168E5
854 853 -8.7309268E5
854 854 1.74398436E6
854 855 -8.7089168E5
855 854 -8.7309268E5
855 855 1.74398436E6
855 856 -8.7089168E5
856 855 -8.7309268E5
856 856 1.74398436E6
856 857 -8.7089168E5
857 856 -8.7309268E5
857 857 1.74398436E6
857 858 -8.7089168E5
858 857 -8.7309268E5
858 858 1.74398436E6
858 859 -8.7089168E5
859 858 -8.7309268E5
859 859 1.74398436E6
859 860 -8.7089168E5
860 859 -8.7309268E5
860 860 1.74398436E6
860 861 -8.7089168E5
861 860 -8.7309268E5
861 861 1.74398436E6
861 862 -8.7089168E5
862 861 -8.7309268E5
862 862 1.74398436E6
862 863 -8.7089168E5
863 862 -8.7309268E5
863 863 1.74398436E6
863 864 -8.7089168E5
864 863 -8.7309268E5
864 864 1.74398436E6
864 865 -8.7089168E5
865 864 -8.7309268E5
865 865 1.74398436E6
865 866 -8.7089168E5
866 865 -8.7309268E5
866 866 1.74398436E6
866 867 -8.7089168E5
867 866 -8.7309268E5
867 867 1.74398436E6
867 868 -8.7089168E5
868 867 -8.7309268E5
868 868 1.74398436E6
868 869 -8.7089168E5
869 868 -8.7309268E5
869 869 1.74398436E6
869 870 -8.7089168E5
870 869 -8.7309268E5
870 870 1.74398436E6
870 871 -8.7089168E5
871 870 -8.7309268E5
871 871 1.74398436E6
871 872 -8.7089168E5
872 871 -8.7309268E5
872 872 1.74398436E6
872 873 -8.7089168E5
873 872 -8.7309268E5
873 873 1.74398436E6
873 874 -8.7089168E5
874 873 -8.7309268E5
874 874 1.74398436E6
874 875 -8.7089168E5
875 874 -8.7309268E5
875 875 1.74398436E6
875 876 -8.7089168E5
876 875 -8.7309268E5
876 876 1.74398436E6
876 877 -8.7089168E5
877 876 -8.7309268E5
877 877 1.74398436E6
877 878 -8.7089168E5
878 877 -8.7309268E5
878 878 1.74398436E6
878 879 -8.7089168E5
879 878 -8.7309268E5
879 879 1.74398436E6
879 880 -8.7089168E5
880 879 -8.7309268E5
880 880 1.74398436E6
880 881 -8.7089168E5
881 880 -8.7309268E5
881 881 1.74398436E6
881 882 -8.7089168E5
882 881 -8.7309268E5
882 882 1.74398436E6
882 883 -8.7089168E5
883 882 -8.7309268E5
883 883 1.74398436E6
883 884 -8.7089168E5
884 883 -8.7309268E5
884 884 1.74398436E6
884 885 -8.7089168E5
885 884 -8.7309268E5
885 885 1.74398436E6
885 886 -8.7089168E5
886 885 -8.7309268E5
886 886 1.74398436E6
886 887 -8.7089168E5
887 886 -8.7309268E5
887 887 1.74398436E6
887 888 -8.7089168E5
888 887 -8.7309268E5
888 888 1.74398436E6
888 889 -8.7089168E5
889 888 -8.7309268E5
889 889 1.74398436E6
889 890 -8.7089168E5
890 889 -8.7309268E5
890 890 1.74398436E6
890 891 -8.7089168E5
891 890 -8.7309268E5
891 891 1.74398436E6
891 892 -8.7089168E5
892 891 -8.7309268E5
892 892 1.74398436E6
892 893 -8.7089168E5
893 892 -8.7309268E5
893 893 1.74398436E6
893 894 -8.7089168E5
894 893 -8.7309268E5
894 894 1.74398436E6
894 895 -8.7089168E5
895 894 -8.7309268E5
895 895 1.74398436E6
895 896 -8.7089168E5
896 895 -8.7309268E5
896 896 1.74398436E6
896 897 -8.7089168E5
897 896 -8.7309268E5
897 897 1.74398436E6
897 898 -8.7089168E5
898 897 -8.7309268E5
898 898 1.74398436E6
898 899 -8.7089168E5
899 898 -8.7309268E5
899 899 1.74398436E6
899 900 -8.7089168E5
900 899 -8.7309268E5
900 900 1.74398436E6
900 901 -8.7089168E5
901 900 -8.7309268E5
901 901 1.74398436E6
901 902 -8.7089168E5
902 901 -8.7309268E5
902 902 1.74398436E6
902 903 -8.7089168E5
903 902 -8.7309268E5
903 903 1.74398436E6
903 904 -8.7089168E5
904 903 -8.7309268E5
904 904 1.74398436E6
904 905 -8.7089168E5
905 904 -8.7309268E5
905 905 1.74398436E6
905 906 -8.7089168E5
906 905 -8.7309268E5
906 906 1.74398436E6
906 907 -8.7089168E5
907 906 -8.7309268E5
907 907 1.74398436E6
907 908 -8.7089168E5
908 907 -8.7309268E5
908 908 1.74398436E6
908 909 -8.7089168E5
909 908 -8.7309268E5
909 909 1.74398436E6
909 910 -8.7089168E5
910 909 -8.7309268E5
910 910 1.74398436E6
910 911 -8.7089168E5
911 910 -8.7309268E5
911 911 1.74398436E6
911 912 -8.7089168E5
912 911 -8.7309268E5
912 912 1.74398436E6
912 913 -8.7089168E5
913 912 -8.7309268E5
913 913 1.74398436E6
913 914 -8.7089168E5
914 913 -8.7309268E5
914 914 1.74398436E6
914 915 -8.7089168E5
915 914 -8.7309268E5
915 915 1.74398436E6
915 916 -8.7089168E5
916 915 -8.7309268E5
916 916 1.74398436E6
916 917 -8.7089168E5
917 916 -8.7309268E5
917 917 1.74398436E6
917 918 -8.7089168E5
918 917 -8.7309268E5
918 918 1.74398436E6
918 919 -8.7089168E5
919 918 -8.7309268E5
919 919 1.74398436E6
919 920 -8.7089168E5
920 919 -8.7309268E5
920 920 1.74398436E6
920 921 -8.7089168E5
921 920 -8.7309268E5
921 921 1.74398436E6
921 922 -8.7089168E5
922 921 -8.7309268E5
922 922 1.74398436E6
922 923 -8.7089168E5
923 922 -8.7309268E5
923 923 1.74398436E6
923 924 -8.7089168E5
924 923 -8.7309268E5
924 924 1.74398436E6
924 925 -8.7089168E5
925 924 -8.7309268E5
925 925 1.74398436E6
925 926 -8.7089168E5
926 925 -8.7309268E5
926 926 1.74398436E6
926 927 -8.7089168E5
927 926 -8.7309268E5
927 927 1.74398436E6
927 928 -8.7089168E5
928 927 -8.7309268E5
928 928 1.74398436E6
928 929 -8.7089168E5
929 928 -8.7309268E5
929 929 1.74398436E6
929 930 -8.7089168E5
930 929 -8.7309268E5
930 930 1.74398436E6
930 931 -8.7089168E5
931 930 -8.7309268E5
931 931 1.74398436E6
931 932 -8.7089168E5
932 931 -8.7309268E5
932 932 1.74398436E6
932 933 -8.7089168E5
933 932 -8.7309268E5
933 933 1.74398436E6
933 934 -8.7089168E5
934 933 -8.7309268E5
934 934 1.74398436E6
934 935 -8.7089168E5
935 934 -8.7309268E5
935 935 1.74398436E6
935 936 -8.7089168E5
936 935 -8.7309268E5
936 936 1.74398436E6
936 937 -8.7089168E5
937 936 -8.7309268E5
937 937 1.74398436E6
937 938 -8.7089168E5
938 937 -8.7309268E5
938 938 1.74398436E6
938 939 -8.7089168E5
939 938 -8.7309268E5
939 939 1.74398436E6
939 940 -8.7089168E5
940 939 -8.7309268E5
940 940 1.74398436E6
940 941 -8.7089168E5
941 940 -8.7309268E5
941 941 1.74398436E6
941 942 -8.7089168E5
942 941 -8.7309268E5
942 942 1.74398436E6
942 943 -8.7089168E5
943 942 -8.7309268E5
943 943 1.74398436E6
943 944 -8.7089168E5
944 943 -8.7309268E5
944 944 1.74398436E6
944 945 -8.7089168E5
945 944 -8.7309268E5
945 945 1.74398436E6
945 946 -8.7089168E5
946 945 -8.7309268E5
946 946 1.74398436E6
946 947 -8.7089168E5
947 946 -8.7309268E5
947 947 1.74398436E6
947 948 -8.7089168E5
948 947 -8.7309268E5
948 948 1.74398436E6
948 949 -8.7089168E5
949 948 -8.7309268E5
949 949 1.74398436E6
949 950 -8.7089168E5
950 949 -8.7309268E5
950 950 1.74398436E6
950 951 -8.7089168E5
951 950 -8.7309268E5
951 951 1.74398436E6
951 952 -8.7089168E5
952 951 -8.7309268E5
952 952 1.74398436E6
952 953 -8.7089168E5
953 952 -8.7309268E5
953 953 1.74398436E6
953 954 -8.7089168E5
954 953 -8.7309268E5
954 954 1.74398436E6
954 955 -8.7089168E5
955 954 -8.7309268E5
955 955 1.74398436E6
955 956 -8.7089168E5
956 955 -8.7309268E5
956 956 1.74398436E6
956 957 -8.7089168E5
957 956 -8.7309268E5
957 957 1.74398436E6
957 958 -8.7089168E5
958 957 -8.7309268E5
958 958 1.74398436E6
958 959 -8.7089168E5
959 958 -8.7309268E5
959 959 1.74398436E6
959 960 -8.7089168E5
960 959 -8.7309268E5
960 960 1.74398436E6
960 961 -8.7089168E5
961 960 -8.7309268E5
961 961 1.74398436E6
961 962 -8.7089168E5
962 961 -8.7309268E5
962 962 1.74398436E6
962 963 -8.7089168E5
963 962 -8.7309268E5
963 963 1.74398436E6
963 964 -8.7089168E5
964 963 -8.7309268E5
964 964 1.74398436E6
964 965 -8.7089168E5
965 964 -8.7309268E5
965 965 1.74398436E6
965 966 -8.7089168E5
966 965 -8.7309268E5
966 966 1.74398436E6
966 967 -8.7089168E5
967 966 -8.7309268E5
967 967 1.74398436E6
967 968 -8.7089168E5
968 967 -8.7309268E5
968 968 1.74398436E6
968 969 -8.7089168E5
969 968 -8.7309268E5
969 969 1.74398436E6
969 970 -8.7089168E5
970 969 -8.7309268E5
970 970 1.74398436E6
970 971 -8.7089168E5
971 970 -8.7309268E5
971 971 1.74398436E6
971 972 -8.7089168E5
972 971 -8.7309268E5
972 972 1.74398436E6
972 973 -8.7089168E5
973 972 -8.7309268E5
973 973 1.74398436E6
973 974 -8.7089168E5
974 973 -8.7309268E5
974 974 1.74398436E6
974 975 -8.7089168E5
975 974 -8.7309268E5
975 975 1.74398436E6
975 976 -8.7089168E5
976 975 -8.7309268E5
976 976 1.74398436E6
976 977 -8.7089168E5
977 976 -8.7309268E5
977 977 1.74398436E6
977 978 -8.7089168E5
978 977 -8.7309268E5
978 978 1.74398436E6
978 979 -8.7089168E5
979 978 -8.7309268E5
979 979 1.74398436E6
979 980 -8.7089168E5
980 979 -8.7309268E5
980 980 1.74398436E6
980 981 -8.7089168E5
981 980 -8.7309268E5
981 981 1.74398436E6
981 982 -8.7089168E5
982 981 -8.7309268E5
982 982 1.74398436E6
982 983 -8.7089168E5
983 982 -8.7309268E5
983 983 1.74398436E6
983 984 -8.7089168E5
984 983 -8.7309268E5
984 984 1.74398436E6
984 985 -8.7089168E5
985 984 -8.7309268E5
985 985 1.74398436E6
985 986 -8.7089168E5
986 985 -8.7309268E5
986 986 1.74398436E6
986 987 -8.7089168E5
987 986 -8.7309268E5
987 987 1.74398436E6
987 988 -8.7089168E5
988 987 -8.7309268E5
988 988 1.74398436E6
988 989 -8.7089168E5
989 988 -8.7309268E5
989 989 1.74398436E6
989 990 -8.7089168E5
990 989 -8.7309268E5
990 990 1.74398436E6
990 991 -8.7089168E5
991 990 -8.7309268E5
991 991 1.74398436E6
991 992 -8.7089168E5
992 991 -8.7309268E5
992 992 1.74398436E6
992 993 -8.7089168E5
993 992 -8.7309268E5
993 993 1.74398436E6
993 994 -8.7089168E5
994 993 -8.7309268E5
994 994 1.74398436E6
994 995 -8.7089168E5
995 994 -8.7309268E5
995 995 1.74398436E6
995 996 -8.7089168E5
996 995 -8.7309268E5
996 996 1.74398436E6
996 997 -8.7089168E5
997 996 -8.7309268E5
997 997 1.74398436E6
997 998 -8.7089168E5
998 997 -8.7309268E5
998 998 1.74398436E6
998 999 -8.7089168E5
999 998 -8.7309268E5
999 999 1.74398436E6
999 1000 -8.7089168E5
1000 999 -8.7309268E5
1000 1000 1.74398436E6
1000 1001 -8.7089168E5
1001 1000 -8.7309268E5
1001 1001 1.74398436E6
1001 1002 -8.7089168E5
1002 1001 -8.7309268E5
1002 1002 1.74398436E6
1002 1003 -8.7089168E5
1003 1002 -8.7309268E5
1003 1003 1.74398436E6
1003 1004 -8.7089168E5
1004 1003 -8.7309268E5
1004 1004 1.74398436E6
1004 1005 -8.7089168E5
1005 1004 -8.7309268E5
1005 1005 1.74398436E6
1005 1006 -8.7089168E5
1006 1005 -8.7309268E5
1006 1006 1.74398436E6
1006 1007 -8.7089168E5
1007 1006 -8.7309268E5
1007 1007 1.74398436E6
1007 1008 -8.7089168E5
1008 1007 -8.7309268E5
1008 1008 1.74398436E6
1008 1009 -8.7089168E5
1009 1008 -8.7309268E5
1009 1009 1.74398436E6
1009 1010 -8.7089168E5
1010 1009 -8.7309268E5
1010 1010 1.74398436E6
1010 1011 -8.7089168E5
1011 1010 -8.7309268E5
1011 1011 1.74398436E6
1011 1012 -8.7089168E5
1012 1011 -8.7309268E5
1012 1012 1.74398436E6
1012 1013 -8.7089168E5
1013 1012 -8.7309268E5
1013 1013 1.74398436E6
1013 1014 -8.7089168E5
1014 1013 -8.7309268E5
1014 1014 1.74398436E6
1014 1015 -8.7089168E5
1015 1014 -8.7309268E5
1015 1015 1.74398436E6
1015 1016 -8.7089168E5
1016 1015 -8.7309268E5
1016 1016 1.74398436E6
1016 1017 -8.7089168E5
1017 1016 -8.7309268E5
1017 1017 1.74398436E6
1017 1018 -8.7089168E5
1018 1017 -8.7309268E5
1018 1018 1.74398436E6
1018 1019 -8.7089168E5
1019 1018 -8.7309268E5
1019 1019 1.74398436E6
1019 1020 -8.7089168E5
1020 1019 -8.7309268E5
1020 1020 1.74398436E6
1020 1021 -8.7089168E5
1021 1020 -8.7309268E5
1021 1021 1.74398436E6
1021 1022 -8.7089168E5
1022 1021 -8.7309268E5
1022 1022 1.74398436E6
1022 1023 -8.7089168E5
1023 1022 -8.7309268E5
1023 1023 1.74398436E6
1023 1024 -8.7089168E5
1024 1023 -8.7309268E5
1024 1024 1.74398436E6
1024 1025 -8.7089168E5
1025 1024 -8.7309268E5
1025 1025 1.74398436E6
1025 1026 -8.7089168E5
1026 1025 -8.7309268E5
1026 1026 1.74398436E6
1026 1027 -8.7089168E5
1027 1026 -8.7309268E5
1027 1027 1.74398436E6
1027 1028 -8.7089168E5
1028 1027 -8.7309268E5
1028 1028 1.74398436E6
1028 1029 -8.7089168E5
1029 1028 -8.7309268E5
1029 1029 1.74398436E6
1029 1030 -8.7089168E5
1030 1029 -8.7309268E5
1030 1030 1.74398436E6
1030 1031 -8.7089168E5
1031 1030 -8.7309268E5
1031 1031 1.74398436E6
1031 1032 -8.7089168E5
1032 1031 -8.7309268E5
1032 1032 1.74398436E6
1032 1033 -8.7089168E5
1033 1032 -8.7309268E5
1033 1033 1.74398436E6
1033 1034 -8.7089168E5
1034 1033 -8.7309268E5
1034 1034 1.74398436E6
1034 1035 -8.7089168E5
1035 1034 -8.7309268E5
1035 1035 1.74398436E6
1035 1036 -8.7089168E5
1036 1035 -8.7309268E5
1036 1036 1.74398436E6
1036 1037 -8.7089168E5
1037 1036 -8.7309268E5
1037 1037 1.74398436E6
1037 1038 -8.7089168E5
1038 1037 -8.7309268E5
1038 1038 1.74398436E6
1038 1039 -8.7089168E5
1039 1038 -8.7309268E5
1039 1039 1.74398436E6
1039 1040 -8.7089168E5
1040 1039 -8.7309268E5
1040 1040 1.74398436E6
1040 1041 -8.7089168E5
1041 1040 -8.7309268E5
1041 1041 1.74398436E6
1041 1042 -8.7089168E5
1042 1041 -8.7309268E5
1042 1042 1.74398436E6
1042 1043 -8.7089168E5
1043 1042 -8.7309268E5
1043 1043 1.74398436E6
1043 1044 -8.7089168E5
1044 1043 -8.7309268E5
1044 1044 1.74398436E6
1044 1045 -8.7089168E5
1045 1044 -8.7309268E5
1045 1045 1.74398436E6
1045 1046 -8.7089168E5
1046 1045 -8.7309268E5
1046 1046 1.74398436E6
1046 1047 -8.7089168E5
1047 1046 -8.7309268E5
1047 1047 1.74398436E6
1047 1048 -8.7089168E5
1048 1047 -8.7309268E5
1048 1048 1.74398436E6
1048 1049 -8.7089168E5
1049 1048 -8.7309268E5
1049 1049 1.74398436E6
1049 1050 -8.7089168E5
1050 1049 -8.7309268E5
1050 1050 1.74398436E6
1050 1051 -8.7089168E5
1051 1050 -8.7309268E5
1051 1051 1.74398436E6
1051 1052 -8.7089168E5
1052 1051 -8.7309268E5
1052 1052 1.74398436E6
1052 1053 -8.7089168E5
1053 1052 -8.7309268E5
1053 1053 1.74398436E6
1053 1054 -8.7089168E5
1054 1053 -8.7309268E5
1054 1054 1.74398436E6
1054 1055 -8.7089168E5
1055 1054 -8.7309268E5
1055 1055 1.74398436E6
1055 1056 -8.7089168E5
1056 1055 -8.7309268E5
1056 1056 1.74398436E6
1056 1057 -8.7089168E5
1057 1056 -8.7309268E5
1057 1057 1.74398436E6
1057 1058 -8.7089168E5
1058 1057 -8.7309268E5
1058 1058 1.74398436E6
1058 1059 -8.7089168E5
1059 1058 -8.7309268E5
1059 1059 1.74398436E6
1059 1060 -8.7089168E5
1060 1059 -8.7309268E5
1060 1060 1.74398436E6
1060 1061 -8.7089168E5
1061 1060 -8.7309268E5
1061 1061 1.74398436E6
1061 1062 -8.7089168E5
1062 1061 -8.7309268E5
1062 1062 1.74398436E6
1062 1063 -8.7089168E5
1063 1062 -8.7309268E5
1063 1063 1.74398436E6
1063 1064 -8.7089168E5
1064 1063 -8.7309268E5
1064 1064 1.74398436E6
1064 1065 -8.7089168E5
1065 1064 -8.7309268E5
1065 1065 1.74398436E6
1065 1066 -8.7089168E5
1066 1065 -8.7309268E5
1066 1066 1.74398436E6
1066 1067 -8.7089168E5
1067 1066 -8.7309268E5
1067 1067 1.74398436E6
1067 1068 -8.7089168E5
1068 1067 -8.7309268E5
1068 1068 1.74398436E6
1068 1069 -8.7089168E5
1069 1068 -8.7309268E5
1069 1069 1.74398436E6
1069 1070 -8.7089168E5
1070 1069 -8.7309268E5
1070 1070 1.74398436E6
1070 1071 -8.7089168E5
1071 1070 -8.7309268E5
1071 1071 1.74398436E6
1071 1072 -8.7089168E5
1072 1071 -8.7309268E5
1072 1072 1.74398436E6
1072 1073 -8.7089168E5
1073 1072 -8.7309268E5
1073 1073 1.74398436E6
1073 1074 -8.7089168E5
1074 1073 -8.7309268E5
1074 1074 1.74398436E6
1074 1075 -8.7089168E5
1075 1074 -8.7309268E5
1075 1075 1.74398436E6
1075 1076 -8.7089168E5
1076 1075 -8.7309268E5
1076 1076 1.74398436E6
1076 1077 -8.7089168E5
1077 1076 -8.7309268E5
1077 1077 1.74398436E6
1077 1078 -8.7089168E5
1078 1077 -8.7309268E5
1078 1078 1.74398436E6
1078 1079 -8.7089168E5
1079 1078 -8.7309268E5
1079 1079 1.74398436E6
1079 1080 -8.7089168E5
1080 1079 -8.7309268E5
1080 1080 1.74398436E6
1080 1081 -8.7089168E5
1081 1080 -8.7309268E5
1081 1081 1.74398436E6
1081 1082 -8.7089168E5
1082 1081 -8.7309268E5
1082 1082 1.74398436E6
1082 1083 -8.7089168E5
1083 1082 -8.7309268E5
1083 1083 1.74398436E6
1083 1084 -8.7089168E5
1084 1083 -8.7309268E5
1084 1084 1.74398436E6
1084 1085 -8.7089168E5
1085 1084 -8.7309268E5
1085 1085 1.74398436E6
1085 1086 -8.7089168E5
1086 1085 -8.7309268E5
1086 1086 1.74398436E6
1086 1087 -8.7089168E5
1087 1086 -8.7309268E5
1087 1087 1.74398436E6
1087 1088 -8.7089168E5
1088 1087 -8.7309268E5
1088 1088 1.74398436E6
1088 1089 -8.7089168E5
1089 1088 -8.7309268E5
1089 1089 1.74398436E6
1089 1090 -8.7089168E5
1090 1089 -8.7309268E5
1090 1090 1.74398436E6
1090 1091 -8.7089168E5
1091 1090 -8.7309268E5
1091 1091 1.74398436E6
1091 1092 -8.7089168E5
1092 1091 -8.7309268E5
1092 1092 1.74398436E6
1092 1093 -8.7089168E5
1093 1092 -8.7309268E5
1093 1093 1.74398436E6
1093 1094 -8.7089168E5
1094 1093 -8.7309268E5
1094 1094 1.74398436E6
1094 1095 -8.7089168E5
1095 1094 -8.7309268E5
1095 1095 1.74398436E6
1095 1096 -8.7089168E5
1096 1095 -8.7309268E5
1096 1096 1.74398436E6
1096 1097 -8.7089168E5
1097 1096 -8.7309268E5
1097 1097 1.74398436E6
1097 1098 -8.7089168E5
1098 1097 -8.7309268E5
1098 1098 1.74398436E6
1098 1099 -8.7089168E5
1099 1098 -8.7309268E5
1099 1099 1.74398436E6
1099 1100 -8.7089168E5
1100 1099 -8.7309268E5
1100 1100 1.74398436E6
1100 1101 -8.7089168E5
1101 1100 -8.7309268E5
1101 1101 1.74398436E6
1101 1102 -8.7089168E5
1102 1101 -8.7309268E5
1102 1102 1.74398436E6
1102 1103 -8.7089168E5
1103 1102 -8.7309268E5
1103 1103 1.74398436E6
1103 1104 -8.7089168E5
1104 1103 -8.7309268E5
1104 1104 1.74398436E6
1104 1105 -8.7089168E5
1105 1104 -8.7309268E5
1105 1105 1.74398436E6
1105 1106 -8.7089168E5
1106 1105 -8.7309268E5
1106 1106 1.74398436E6
1106 1107 -8.7089168E5
1107 1106 -8.7309268E5
1107 1107 1.74398436E6
1107 1108 -8.7089168E5
1108 1107 -8.7309268E5
1108 1108 1.74398436E6
1108 1109 -8.7089168E5
1109 1108 -8.7309268E5
1109 1109 1.74398436E6
1109 1110 -8.7089168E5
1110 1109 -8.7309268E5
1110 1110 1.74398436E6
1110 1111 -8.7089168E5
1111 1110 -8.7309268E5
1111 1111 1.74398436E6
1111 1112 -8.7089168E5
1112 1111 -8.7309268E5
1112 1112 1.74398436E6
1112 1113 -8.7089168E5
1113 1112 -8.7309268E5
1113 1113 1.74398436E6
1113 1114 -8.7089168E5
1114 1113 -8.7309268E5
1114 1114 1.74398436E6
1114 1115 -8.7089168E5
1115 1114 -8.7309268E5
1115 1115 1.74398436E6
1115 1116 -8.7089168E5
1116 1115 -8.7309268E5
1116 1116 1.74398436E6
1116 1117 -8.7089168E5
1117 1116 -8.7309268E5
1117 1117 1.74398436E6
1117 1118 -8.7089168E5
1118 1117 -8.7309268E5
1118 1118 1.74398436E6
1118 1119 -8.7089168E5
1119 1118 -8.7309268E5
1119 1119 1.74398436E6
1119 1120 -8.7089168E5
1120 1119 -8.7309268E5
1120 1120 1.74398436E6
1120 1121 -8.7089168E5
1121 1120 -8.7309268E5
1121 1121 1.74398436E6
1121 1122 -8.7089168E5
1122 1121 -8.7309268E5
1122 1122 1.74398436E6
1122 1123 -8.7089168E5
1123 1122 -8.7309268E5
1123 1123 1.74398436E6
1123 1124 -8.7089168E5
1124 1123 -8.7309268E5
1124 1124 1.74398436E6
1124 1125 -8.7089168E5
1125 1124 -8.7309268E5
1125 1125 1.74398436E6
1125 1126 -8.7089168E5
1126 1125 -8.7309268E5
1126 1126 1.74398436E6
1126 1127 -8.7089168E5
1127 1126 -8.7309268E5
1127 1127 1.74398436E6
1127 1128 -8.7089168E5
1128 1127 -8.7309268E5
1128 1128 1.74398436E6
1128 1129 -8.7089168E5
1129 1128 -8.7309268E5
1129 1129 1.74398436E6
1129 1130 -8.7089168E5
1130 1129 -8.7309268E5
1130 1130 1.74398436E6
1130 1131 -8.7089168E5
1131 1130 -8.7309268E5
1131 1131 1.74398436E6
1131 1132 -8.7089168E5
1132 1131 -8.7309268E5
1132 1132 1.74398436E6
1132 1133 -8.7089168E5
1133 1132 -8.7309268E5
1133 1133 1.74398436E6
1133 1134 -8.7089168E5
1134 1133 -8.7309268E5
1134 1134 1.74398436E6
1134 1135 -8.7089168E5
1135 1134 -8.7309268E5
1135 1135 1.74398436E6
1135 1136 -8.7089168E5
1136 1135 -8.7309268E5
1136 1136 1.74398436E6
1136 1137 -8.7089168E5
1137 1136 -8.7309268E5
1137 1137 1.74398436E6
1137 1138 -8.7089168E5
1138 1137 -8.7309268E5
1138 1138 1.74398436E6
1138 1139 -8.7089168E5
1139 1138 -8.7309268E5
1139 1139 1.74398436E6
1139 1140 -8.7089168E5
1140 1139 -8.7309268E5
1140 1140 1.74398436E6
1140 1141 -8.7089168E5
1141 1140 -8.7309268E5
1141 1141 1.74398436E6
1141 1142 -8.7089168E5
1142 1141 -8.7309268E5
1142 1142 1.74398436E6
1142 1143 -8.7089168E5
1143 1142 -8.7309268E5
1143 1143 1.74398436E6
1143 1144 -8.7089168E5
1144 1143 -8.7309268E5
1144 1144 1.74398436E6
1144 1145 -8.7089168E5
1145 1144 -8.7309268E5
1145 1145 1.74398436E6
1145 1146 -8.7089168E5
1146 1145 -8.7309268E5
1146 1146 1.74398436E6
1146 1147 -8.7089168E5
1147 1146 -8.7309268E5
1147 1147 1.74398436E6
1147 1148 -8.7089168E5
1148 1147 -8.7309268E5
1148 1148 1.74398436E6
1148 1149 -8.7089168E5
1149 1148 -8.7309268E5
1149 1149 1.74398436E6
1149 1150 -8.7089168E5
1150 1149 -8.7309268E5
1150 1150 1.74398436E6
1150 1151 -8.7089168E5
1151 1150 -8.7309268E5
1151 1151 1.74398436E6
1151 1152 -8.7089168E5
1152 1151 -8.7309268E5
1152 1152 1.74398436E6
1152 1153 -8.7089168E5
1153 1152 -8.7309268E5
1153 1153 1.74398436E6
1153 1154 -8.7089168E5
1154 1153 -8.7309268E5
1154 1154 1.74398436E6
1154 1155 -8.7089168E5
1155 1154 -8.7309268E5
1155 1155 1.74398436E6
1155 1156 -8.7089168E5
1156 1155 -8.7309268E5
1156 1156 1.74398436E6
1156 1157 -8.7089168E5
1157 1156 -8.7309268E5
1157 1157 1.74398436E6
1157 1158 -8.7089168E5
1158 1157 -8.7309268E5
1158 1158 1.74398436E6
1158 1159 -8.7089168E5
1159 1158 -8.7309268E5
1159 1159 1.74398436E6
1159 1160 -8.7089168E5
1160 1159 -8.7309268E5
1160 1160 1.74398436E6
1160 1161 -8.7089168E5
1161 1160 -8.7309268E5
1161 1161 1.74398436E6
1161 1162 -8.7089168E5
1162 1161 -8.7309268E5
1162 1162 1.74398436E6
1162 1163 -8.7089168E5
1163 1162 -8.7309268E5
1163 1163 1.74398436E6
1163 1164 -8.7089168E5
1164 1163 -8.7309268E5
1164 1164 1.74398436E6
1164 1165 -8.7089168E5
1165 1164 -8.7309268E5
1165 1165 1.74398436E6
1165 1166 -8.7089168E5
1166 1165 -8.7309268E5
1166 1166 1.74398436E6
1166 1167 -8.7089168E5
1167 1166 -8.7309268E5
1167 1167 1.74398436E6
1167 1168 -8.7089168E5
1168 1167 -8.7309268E5
1168 1168 1.74398436E6
1168 1169 -8.7089168E5
1169 1168 -8.7309268E5
1169 1169 1.74398436E6
1169 1170 -8.7089168E5
1170 1169 -8.7309268E5
1170 1170 1.74398436E6
1170 1171 -8.7089168E5
1171 1170 -8.7309268E5
1171 1171 1.74398436E6
1171 1172 -8.7089168E5
1172 1171 -8.7309268E5
1172 1172 1.74398436E6
1172 1173 -8.7089168E5
1173 1172 -8.7309268E5
1173 1173 1.74398436E6
1173 1174 -8.7089168E5
1174 1173 -8.7309268E5
1174 1174 1.74398436E6
1174 1175 -8.7089168E5
1175 1174 -8.7309268E5
1175 1175 1.74398436E6
1175 1176 -8.7089168E5
1176 1175 -8.7309268E5
1176 1176 1.74398436E6
1176 1177 -8.7089168E5
1177 1176 -8.7309268E5
1177 1177 1.74398436E6
1177 1178 -8.7089168E5
1178 1177 -8.7309268E5
1178 1178 1.74398436E6
1178 1179 -8.7089168E5
1179 1178 -8.7309268E5
1179 1179 1.74398436E6
1179 1180 -8.7089168E5
1180 1179 -8.7309268E5
1180 1180 1.74398436E6
1180 1181 -8.7089168E5
1181 1180 -8.7309268E5
1181 1181 1.74398436E6
1181 1182 -8.7089168E5
1182 1181 -8.7309268E5
1182 1182 1.74398436E6
1182 1183 -8.7089168E5
1183 1182 -8.7309268E5
1183 1183 1.74398436E6
1183 1184 -8.7089168E5
1184 1183 -8.7309268E5
1184 1184 1.74398436E6
1184 1185 -8.7089168E5
1185 1184 -8.7309268E5
1185 1185 1.74398436E6
1185 1186 -8.7089168E5
1186 1185 -8.7309268E5
1186 1186 1.74398436E6
1186 1187 -8.7089168E5
1187 1186 -8.7309268E5
1187 1187 1.74398436E6
1187 1188 -8.7089168E5
1188 1187 -8.7309268E5
1188 1188 1.74398436E6
1188 1189 -8.7089168E5
1189 1188 -8.7309268E5
1189 1189 1.74398436E6
1189 1190 -8.7089168E5
1190 1189 -8.7309268E5
1190 1190 1.74398436E6
1190 1191 -8.7089168E5
1191 1190 -8.7309268E5
1191 1191 1.74398436E6
1191 1192 -8.7089168E5
1192 1191 -8.7309268E5
1192 1192 1.74398436E6
1192 1193 -8.7089168E5
1193 1192 -8.7309268E5
1193 1193 1.74398436E6
1193 1194 -8.7089168E5
1194 1193 -8.7309268E5
1194 1194 1.74398436E6
1194 1195 -8.7089168E5
1195 1194 -8.7309268E5
1195 1195 1.74398436E6
1195 1196 -8.7089168E5
1196 1195 -8.7309268E5
1196 1196 1.74398436E6
1196 1197 -8.7089168E5
1197 1196 -8.7309268E5
1197 1197 1.74398436E6
1197 1198 -8.7089168E5
1198 1197 -8.7309268E5
1198 1198 1.74398436E6
1198 1199 -8.7089168E5
1199 1198 -8.7309268E5
1199 1199 1.74398436E6
1199 1200 -8.7089168E5
1200 1199 -8.7309268E5
1200 1200 1.74398436E6
1200 1201 -8.7089168E5
1201 1200 -8.7309268E5
1201 1201 1.74398436E6
1201 1202 -8.7089168E5
1202 1201 -8.7309268E5
1202 1202 1.74398436E6
1202 1203 -8.7089168E5
1203 1202 -8.7309268E5
1203 1203 1.74398436E6
1203 1204 -8.7089168E5
1204 1203 -8.7309268E5
1204 1204 1.74398436E6
1204 1205 -8.7089168E5
1205 1204 -8.7309268E5
1205 1205 1.74398436E6
1205 1206 -8.7089168E5
1206 1205 -8.7309268E5
1206 1206 1.74398436E6
1206 1207 -8.7089168E5
1207 1206 -8.7309268E5
1207 1207 1.74398436E6
1207 1208 -8.7089168E5
1208 1207 -8.7309268E5
1208 1208 1.74398436E6
1208 1209 -8.7089168E5
1209 1208 -8.7309268E5
1209 1209 1.74398436E6
1209 1210 -8.7089168E5
1210 1209 -8.7309268E5
1210 1210 1.74398436E6
1210 1211 -8.7089168E5
1211 1210 -8.7309268E5
1211 1211 1.74398436E6
1211 1212 -8.7089168E5
1212 1211 -8.7309268E5
1212 1212 1.74398436E6
1212 1213 -8.7089168E5
1213 1212 -8.7309268E5
1213 1213 1.74398436E6
1213 1214 -8.7089168E5
1214 1213 -8.7309268E5
1214 1214 1.74398436E6
1214 1215 -8.7089168E5
1215 1214 -8.7309268E5
1215 1215 1.74398436E6
1215 1216 -8.7089168E5
1216 1215 -8.7309268E5
1216 1216 1.74398436E6
1216 1217 -8.7089168E5
1217 1216 -8.7309268E5
1217 1217 1.74398436E6
1217 1218 -8.7089168E5
1218 1217 -8.7309268E5
1218 1218 1.74398436E6
1218 1219 -8.7089168E5
1219 1218 -8.7309268E5
1219 1219 1.74398436E6
1219 1220 -8.7089168E5
1220 1219 -8.7309268E5
1220 1220 1.74398436E6
1220 1221 -8.7089168E5
1221 1220 -8.7309268E5
1221 1221 1.74398436E6
1221 1222 -8.7089168E5
1222 1221 -8.7309268E5
1222 1222 1.74398436E6
1222 1223 -8.7089168E5
1223 1222 -8.7309268E5
1223 1223 1.74398436E6
1223 1224 -8.7089168E5
1224 1223 -8.7309268E5
1224 1224 1.74398436E6
1224 1225 -8.7089168E5
1225 1224 -8.7309268E5
1225 1225 1.74398436E6
1225 1226 -8.7089168E5
1226 1225 -8.7309268E5
1226 1226 1.74398436E6
1226 1227 -8.7089168E5
1227 1226 -8.7309268E5
1227 1227 1.74398436E6
1227 1228 -8.7089168E5
1228 1227 -8.7309268E5
1228 1228 1.74398436E6
1228 1229 -8.7089168E5
1229 1228 -8.7309268E5
1229 1229 1.74398436E6
1229 1230 -8.7089168E5
1230 1229 -8.7309268E5
1230 1230 1.74398436E6
1230 1231 -8.7089168E5
1231 1230 -8.7309268E5
1231 1231 1.74398436E6
1231 1232 -8.7089168E5
1232 1231 -8.7309268E5
1232 1232 1.74398436E6
1232 1233 -8.7089168E5
1233 1232 -8.7309268E5
1233 1233 1.74398436E6
1233 1234 -8.7089168E5
1234 1233 -8.7309268E5
1234 1234 1.74398436E6
1234 1235 -8.7089168E5
1235 1234 -8.7309268E5
1235 1235 1.74398436E6
1235 1236 -8.7089168E5
1236 1235 -8.7309268E5
1236 1236 1.74398436E6
1236 1237 -8.7089168E5
1237 1236 -8.7309268E5
1237 1237 1.74398436E6
1237 1238 -8.7089168E5
1238 1237 -8.7309268E5
1238 1238 1.74398436E6
1238 1239 -8.7089168E5
1239 1238 -8.7309268E5
1239 1239 1.74398436E6
1239 1240 -8.7089168E5
1240 1239 -8.7309268E5
1240 1240 1.74398436E6
1240 1241 -8.7089168E5
1241 1240 -8.7309268E5
1241 1241 1.74398436E6
1241 1242 -8.7089168E5
1242 1241 -8.7309268E5
1242 1242 1.74398436E6
1242 1243 -8.7089168E5
1243 1242 -8.7309268E5
1243 1243 1.74398436E6
1243 1244 -8.7089168E5
1244 1243 -8.7309268E5
1244 1244 1.74398436E6
1244 1245 -8.7089168E5
1245 1244 -8.7309268E5
1245 1245 1.74398436E6
1245 1246 -8.7089168E5
1246 1245 -8.7309268E5
1246 1246 1.74398436E6
1246 1247 -8.7089168E5
1247 1246 -8.7309268E5
1247 1247 1.74398436E6
1247 1248 -8.7089168E5
1248 1247 -8.7309268E5
1248 1248 1.74398436E6
1248 1249 -8.7089168E5
1249 1248 -8.7309268E5
1249 1249 1.74398436E6
1249 1250 -8.7089168E5
1250 1249 -8.7309268E5
1250 1250 1.74398436E6
1250 1251 -8.7089168E5
1251 1250 -8.7309268E5
1251 1251 1.74398436E6
1251 1252 -8.7089168E5
1252 1251 -8.7309268E5
1252 1252 1.74398436E6
1252 1253 -8.7089168E5
1253 1252 -8.7309268E5
1253 1253 1.74398436E6
1253 1254 -8.7089168E5
1254 1253 -8.7309268E5
1254 1254 1.74398436E6
1254 1255 -8.7089168E5
1255 1254 -8.7309268E5
1255 1255 1.74398436E6
1255 1256 -8.7089168E5
1256 1255 -8.7309268E5
1256 1256 1.74398436E6
1256 1257 -8.7089168E5
1257 1256 -8.7309268E5
1257 1257 1.74398436E6
1257 1258 -8.7089168E5
1258 1257 -8.7309268E5
1258 1258 1.74398436E6
1258 1259 -8.7089168E5
1259 1258 -8.7309268E5
1259 1259 1.74398436E6
1259 1260 -8.7089168E5
1260 1259 -8.7309268E5
1260 1260 1.74398436E6
1260 1261 -8.7089168E5
1261 1260 -8.7309268E5
1261 1261 1.74398436E6
1261 1262 -8.7089168E5
1262 1261 -8.7309268E5
1262 1262 1.74398436E6
1262 1263 -8.7089168E5
1263 1262 -8.7309268E5
1263 1263 1.74398436E6
1263 1264 -8.7089168E5
1264 1263 -8.7309268E5
1264 1264 1.74398436E6
1264 1265 -8.7089168E5
1265 1264 -8.7309268E5
1265 1265 1.74398436E6
1265 1266 -8.7089168E5
1266 1265 -8.7309268E5
1266 1266 1.74398436E6
1266 1267 -8.7089168E5
1267 1266 -8.7309268E5
1267 1267 1.74398436E6
1267 1268 -8.7089168E5
1268 1267 -8.7309268E5
1268 1268 1.74398436E6
1268 1269 -8.7089168E5
1269 1268 -8.7309268E5
1269 1269 1.74398436E6
1269 1270 -8.7089168E5
1270 1269 -8.7309268E5
1270 1270 1.74398436E6
1270 1271 -8.7089168E5
1271 1270 -8.7309268E5
1271 1271 1.74398436E6
1271 1272 -8.7089168E5
1272 1271 -8.7309268E5
1272 1272 1.74398436E6
1272 1273 -8.7089168E5
1273 1272 -8.7309268E5
1273 1273 1.74398436E6
1273 1274 -8.7089168E5
1274 1273 -8.7309268E5
1274 1274 1.74398436E6
1274 1275 -8.7089168E5
1275 1274 -8.7309268E5
1275 1275 1.74398436E6
1275 1276 -8.7089168E5
1276 1275 -8.7309268E5
1276 1276 1.74398436E6
1276 1277 -8.7089168E5
1277 1276 -8.7309268E5
1277 1277 1.74398436E6
1277 1278 -8.7089168E5
1278 1277 -8.7309268E5
1278 1278 1.74398436E6
1278 1279 -8.7089168E5
1279 1278 -8.7309268E5
1279 1279 1.74398436E6
1279 1280 -8.7089168E5
1280 1279 -8.7309268E5
1280 1280 1.74398436E6
1280 1281 -8.7089168E5
1281 1280 -8.7309268E5
1281 1281 1.74398436E6
1281 1282 -8.7089168E5
1282 1281 -8.7309268E5
1282 1282 1.74398436E6
1282 1283 -8.7089168E5
1283 1282 -8.7309268E5
1283 1283 1.74398436E6
1283 1284 -8.7089168E5
1284 1283 -8.7309268E5
1284 1284 1.74398436E6
1284 1285 -8.7089168E5
1285 1284 -8.7309268E5
1285 1285 1.74398436E6
1285 1286 -8.7089168E5
1286 1285 -8.7309268E5
1286 1286 1.74398436E6
1286 1287 -8.7089168E5
1287 1286 -8.7309268E5
1287 1287 1.74398436E6
1287 1288 -8.7089168E5
1288 1287 -8.7309268E5
1288 1288 1.74398436E6
1288 1289 -8.7089168E5
1289 1288 -8.7309268E5
1289 1289 1.74398436E6
1289 1290 -8.7089168E5
1290 1289 -8.7309268E5
1290 1290 1.74398436E6
1290 1291 -8.7089168E5
1291 1290 -8.7309268E5
1291 1291 1.74398436E6
1291 1292 -8.7089168E5
1292 1291 -8.7309268E5
1292 1292 1.74398436E6
1292 1293 -8.7089168E5
1293 1292 -8.7309268E5
1293 1293 1.74398436E6
1293 1294 -8.7089168E5
1294 1293 -8.7309268E5
1294 1294 1.74398436E6
1294 1295 -8.7089168E5
1295 1294 -8.7309268E5
1295 1295 1.74398436E6
1295 1296 -8.7089168E5
1296 1295 -8.7309268E5
1296 1296 1.74398436E6
1296 1297 -8.7089168E5
1297 1296 -8.7309268E5
1297 1297 1.74398436E6
1297 1298 -8.7089168E5
1298 1297 -8.7309268E5
1298 1298 1.74398436E6
1298 1299 -8.7089168E5
1299 1298 -8.7309268E5
1299 1299 1.74398436E6
1299 1300 -8.7089168E5
1300 1299 -8.7309268E5
1300 1300 1.74398436E6
1300 1301 -8.7089168E5
1301 1300 -8.7309268E5
1301 1301 1.74398436E6
1301 1302 -8.7089168E5
1302 1301 -8.7309268E5
1302 1302 1.74398436E6
1302 1303 -8.7089168E5
1303 1302 -8.7309268E5
1303 1303 1.74398436E6
1303 1304 -8.7089168E5
1304 1303 -8.7309268E5
1304 1304 1.74398436E6
1304 1305 -8.7089168E5
1305 1304 -8.7309268E5
1305 1305 1.74398436E6
1305 1306 -8.7089168E5
1306 1305 -8.7309268E5
1306 1306 1.74398436E6
1306 1307 -8.7089168E5
1307 1306 -8.7309268E5
1307 1307 1.74398436E6
1307 1308 -8.7089168E5
1308 1307 -8.7309268E5
1308 1308 1.74398436E6
1308 1309 -8.7089168E5
1309 1308 -8.7309268E5
1309 1309 1.74398436E6
1309 1310 -8.7089168E5
1310 1309 -8.7309268E5
1310 1310 1.74398436E6
1310 1311 -8.7089168E5
1311 1310 -8.7309268E5
1311 1311 1.74398436E6
1311 1312 -8.7089168E5
1312 1311 -8.7309268E5
1312 1312 1.74398436E6
1312 1313 -8.7089168E5
1313 1312 -8.7309268E5
1313 1313 1.74398436E6
1313 1314 -8.7089168E5
1314 1313 -8.7309268E5
1314 1314 1.74398436E6
1314 1315 -8.7089168E5
1315 1314 -8.7309268E5
1315 1315 1.74398436E6
1315 1316 -8.7089168E5
1316 1315 -8.7309268E5
1316 1316 1.74398436E6
1316 1317 -8.7089168E5
1317 1316 -8.7309268E5
1317 1317 1.74398436E6
1317 1318 -8.7089168E5
1318 1317 -8.7309268E5
1318 1318 1.74398436E6
1318 1319 -8.7089168E5
1319 1318 -8.7309268E5
1319 1319 1.74398436E6
1319 1320 -8.7089168E5
1320 1319 -8.7309268E5
1320 1320 1.74398436E6
1320 1321 -8.7089168E5
1321 1320 -8.7309268E5
1321 1321 1.74398436E6
1321 1322 -8.7089168E5
1322 1321 -8.7309268E5
1322 1322 1.74398436E6
1322 1323 -8.7089168E5
1323 1322 -8.7309268E5
1323 1323 1.74398436E6
1323 1324 -8.7089168E5
1324 1323 -8.7309268E5
1324 1324 1.74398436E6
1324 1325 -8.7089168E5
1325 1324 -8.7309268E5
1325 1325 1.74398436E6
1325 1326 -8.7089168E5
1326 1325 -8.7309268E5
1326 1326 1.74398436E6
1326 1327 -8.7089168E5
1327 1326 -8.7309268E5
1327 1327 1.74398436E6
1327 1328 -8.7089168E5
1328 1327 -8.7309268E5
1328 1328 1.74398436E6
1328 1329 -8.7089168E5
1329 1328 -8.7309268E5
1329 1329 1.74398436E6
1329 1330 -8.7089168E5
1330 1329 -8.7309268E5
1330 1330 1.74398436E6
1330 1331 -8.7089168E5
1331 1330 -8.7309268E5
1331 1331 1.74398436E6
1331 1332 -8.7089168E5
1332 1331 -8.7309268E5
1332 1332 1.74398436E6
1332 1333 -8.7089168E5
1333 1332 -8.7309268E5
1333 1333 1.74398436E6
1333 1334 -8.7089168E5
1334 1333 -8.7309268E5
1334 1334 1.74398436E6
1334 1335 -8.7089168E5
1335 1334 -8.7309268E5
1335 1335 1.74398436E6
1335 1336 -8.7089168E5
1336 1335 -8.7309268E5
1336 1336 1.74398436E6
1336 1337 -8.7089168E5
1337 1336 -8.7309268E5
1337 1337 1.74398436E6
1337 1338 -8.7089168E5
1338 1337 -8.7309268E5
1338 1338 1.74398436E6
1338 1339 -8.7089168E5
1339 1338 -8.7309268E5
1339 1339 1.74398436E6
1339 1340 -8.7089168E5
1340 1339 -8.7309268E5
1340 1340 1.74398436E6
1340 1341 -8.7089168E5
1341 1340 -8.7309268E5
1341 1341 1.74398436E6
1341 1342 -8.7089168E5
1342 1341 -8.7309268E5
1342 1342 1.74398436E6
1342 1343 -8.7089168E5
1343 1342 -8.7309268E5
1343 1343 1.74398436E6
1343 1344 -8.7089168E5
1344 1343 -8.7309268E5
1344 1344 1.74398436E6
1344 1345 -8.7089168E5
1345 1344 -8.7309268E5
1345 1345 1.74398436E6
1345 1346 -8.7089168E5
1346 1345 -8.7309268E5
1346 1346 1.74398436E6
1346 1347 -8.7089168E5
1347 1346 -8.7309268E5
1347 1347 1.74398436E6
1347 1348 -8.7089168E5
1348 1347 -8.7309268E5
1348 1348 1.74398436E6
1348 1349 -8.7089168E5
1349 1348 -8.7309268E5
1349 1349 1.74398436E6
1349 1350 -8.7089168E5
1350 1349 -8.7309268E5
1350 1350 1.74398436E6
1350 1351 -8.7089168E5
1351 1350 -8.7309268E5
1351 1351 1.74398436E6
1351 1352 -8.7089168E5
1352 1351 -8.7309268E5
1352 1352 1.74398436E6
1352 1353 -8.7089168E5
1353 1352 -8.7309268E5
1353 1353 1.74398436E6
1353 1354 -8.7089168E5
1354 1353 -8.7309268E5
1354 1354 1.74398436E6
1354 1355 -8.7089168E5
1355 1354 -8.7309268E5
1355 1355 1.74398436E6
1355 1356 -8.7089168E5
1356 1355 -8.7309268E5
1356 1356 1.74398436E6
1356 1357 -8.7089168E5
1357 1356 -8.7309268E5
1357 1357 1.74398436E6
1357 1358 -8.7089168E5
1358 1357 -8.7309268E5
1358 1358 1.74398436E6
1358 1359 -8.7089168E5
1359 1358 -8.7309268E5
1359 1359 1.74398436E6
1359 1360 -8.7089168E5
1360 1359 -8.7309268E5
1360 1360 1.74398436E6
1360 1361 -8.7089168E5
1361 1360 -8.7309268E5
1361 1361 1.74398436E6
1361 1362 -8.7089168E5
1362 1361 -8.7309268E5
1362 1362 1.74398436E6
1362 1363 -8.7089168E5
1363 1362 -8.7309268E5
1363 1363 1.74398436E6
1363 1364 -8.7089168E5
1364 1363 -8.7309268E5
1364 1364 1.74398436E6
1364 1365 -8.7089168E5
1365 1364 -8.7309268E5
1365 1365 1.74398436E6
1365 1366 -8.7089168E5
1366 1365 -8.7309268E5
1366 1366 1.74398436E6
1366 1367 -8.7089168E5
1367 1366 -8.7309268E5
1367 1367 1.74398436E6
1367 1368 -8.7089168E5
1368 1367 -8.7309268E5
1368 1368 1.74398436E6
1368 1369 -8.7089168E5
1369 1368 -8.7309268E5
1369 1369 1.74398436E6
1369 1370 -8.7089168E5
1370 1369 -8.7309268E5
1370 1370 1.74398436E6
1370 1371 -8.7089168E5
1371 1370 -8.7309268E5
1371 1371 1.74398436E6
1371 1372 -8.7089168E5
1372 1371 -8.7309268E5
1372 1372 1.74398436E6
1372 1373 -8.7089168E5
1373 1372 -8.7309268E5
1373 1373 1.74398436E6
1373 1374 -8.7089168E5
1374 1373 -8.7309268E5
1374 1374 1.74398436E6
1374 1375 -8.7089168E5
1375 1374 -8.7309268E5
1375 1375 1.74398436E6
1375 1376 -8.7089168E5
1376 1375 -8.7309268E5
1376 1376 1.74398436E6
1376 1377 -8.7089168E5
1377 1376 -8.7309268E5
1377 1377 1.74398436E6
1377 1378 -8.7089168E5
1378 1377 -8.7309268E5
1378 1378 1.74398436E6
1378 1379 -8.7089168E5
1379 1378 -8.7309268E5
1379 1379 1.74398436E6
1379 1380 -8.7089168E5
1380 1379 -8.7309268E5
1380 1380 1.74398436E6
1380 1381 -8.7089168E5
1381 1380 -8.7309268E5
1381 1381 1.74398436E6
1381 1382 -8.7089168E5
1382 1381 -8.7309268E5
1382 1382 1.74398436E6
1382 1383 -8.7089168E5
1383 1382 -8.7309268E5
1383 1383 1.74398436E6
1383 1384 -8.7089168E5
1384 1383 -8.7309268E5
1384 1384 1.74398436E6
1384 1385 -8.7089168E5
1385 1384 -8.7309268E5
1385 1385 1.74398436E6
1385 1386 -8.7089168E5
1386 1385 -8.7309268E5
1386 1386 1.74398436E6
1386 1387 -8.7089168E5
1387 1386 -8.7309268E5
1387 1387 1.74398436E6
1387 1388 -8.7089168E5
1388 1387 -8.7309268E5
1388 1388 1.74398436E6
1388 1389 -8.7089168E5
1389 1388 -8.7309268E5
1389 1389 1.74398436E6
1389 1390 -8.7089168E5
1390 1389 -8.7309268E5
1390 1390 1.74398436E6
1390 1391 -8.7089168E5
1391 1390 -8.7309268E5
1391 1391 1.74398436E6
1391 1392 -8.7089168E5
1392 1391 -8.7309268E5
1392 1392 1.74398436E6
1392 1393 -8.7089168E5
1393 1392 -8.7309268E5
1393 1393 1.74398436E6
1393 1394 -8.7089168E5
1394 1393 -8.7309268E5
1394 1394 1.74398436E6
1394 1395 -8.7089168E5
1395 1394 -8.7309268E5
1395 1395 1.74398436E6
1395 1396 -8.7089168E5
1396 1395 -8.7309268E5
1396 1396 1.74398436E6
1396 1397 -8.7089168E5
1397 1396 -8.7309268E5
1397 1397 1.74398436E6
1397 1398 -8.7089168E5
1398 1397 -8.7309268E5
1398 1398 1.74398436E6
1398 1399 -8.7089168E5
1399 1398 -8.7309268E5
1399 1399 1.74398436E6
1399 1400 -8.7089168E5
1400 1399 -8.7309268E5
1400 1400 1.74398436E6
1400 1401 -8.7089168E5
1401 1400 -8.7309268E5
1401 1401 1.74398436E6
1401 1402 -8.7089168E5
1402 1401 -8.7309268E5
1402 1402 1.74398436E6
1402 1403 -8.7089168E5
1403 1402 -8.7309268E5
1403 1403 1.74398436E6
1403 1404 -8.7089168E5
1404 1403 -8.7309268E5
1404 1404 1.74398436E6
1404 1405 -8.7089168E5
1405 1404 -8.7309268E5
1405 1405 1.74398436E6
1405 1406 -8.7089168E5
1406 1405 -8.7309268E5
1406 1406 1.74398436E6
1406 1407 -8.7089168E5
1407 1406 -8.7309268E5
1407 1407 1.74398436E6
1407 1408 -8.7089168E5
1408 1407 -8.7309268E5
1408 1408 1.74398436E6
1408 1409 -8.7089168E5
1409 1408 -8.7309268E5
1409 1409 1.74398436E6
1409 1410 -8.7089168E5
1410 1409 -8.7309268E5
1410 1410 1.74398436E6
1410 1411 -8.7089168E5
1411 1410 -8.7309268E5
1411 1411 1.74398436E6
1411 1412 -8.7089168E5
1412 1411 -8.7309268E5
1412 1412 1.74398436E6
1412 1413 -8.7089168E5
1413 1412 -8.7309268E5
1413 1413 1.74398436E6
1413 1414 -8.7089168E5
1414 1413 -8.7309268E5
1414 1414 1.74398436E6
1414 1415 -8.7089168E5
1415 1414 -8.7309268E5
1415 1415 1.74398436E6
1415 1416 -8.7089168E5
1416 1415 -8.7309268E5
1416 1416 1.74398436E6
1416 1417 -8.7089168E5
1417 1416 -8.7309268E5
1417 1417 1.74398436E6
1417 1418 -8.7089168E5
1418 1417 -8.7309268E5
1418 1418 1.74398436E6
1418 1419 -8.7089168E5
1419 1418 -8.7309268E5
1419 1419 1.74398436E6
1419 1420 -8.7089168E5
1420 1419 -8.7309268E5
1420 1420 1.74398436E6
1420 1421 -8.7089168E5
1421 1420 -8.7309268E5
1421 1421 1.74398436E6
1421 1422 -8.7089168E5
1422 1421 -8.7309268E5
1422 1422 1.74398436E6
1422 1423 -8.7089168E5
1423 1422 -8.7309268E5
1423 1423 1.74398436E6
1423 1424 -8.7089168E5
1424 1423 -8.7309268E5
1424 1424 1.74398436E6
1424 1425 -8.7089168E5
1425 1424 -8.7309268E5
1425 1425 1.74398436E6
1425 1426 -8.7089168E5
1426 1425 -8.7309268E5
1426 1426 1.74398436E6
1426 1427 -8.7089168E5
1427 1426 -8.7309268E5
1427 1427 1.74398436E6
1427 1428 -8.7089168E5
1428 1427 -8.7309268E5
1428 1428 1.74398436E6
1428 1429 -8.7089168E5
1429 1428 -8.7309268E5
1429 1429 1.74398436E6
1429 1430 -8.7089168E5
1430 1429 -8.7309268E5
1430 1430 1.74398436E6
1430 1431 -8.7089168E5
1431 1430 -8.7309268E5
1431 1431 1.74398436E6
1431 1432 -8.7089168E5
1432 1431 -8.7309268E5
1432 1432 1.74398436E6
1432 1433 -8.7089168E5
1433 1432 -8.7309268E5
1433 1433 1.74398436E6
1433 1434 -8.7089168E5
1434 1433 -8.7309268E5
1434 1434 1.74398436E6
1434 1435 -8.7089168E5
1435 1434 -8.7309268E5
1435 1435 1.74398436E6
1435 1436 -8.7089168E5
1436 1435 -8.7309268E5
1436 1436 1.74398436E6
1436 1437 -8.7089168E5
1437 1436 -8.7309268E5
1437 1437 1.74398436E6
1437 1438 -8.7089168E5
1438 1437 -8.7309268E5
1438 1438 1.74398436E6
1438 1439 -8.7089168E5
1439 1438 -8.7309268E5
1439 1439 1.74398436E6
1439 1440 -8.7089168E5
1440 1439 -8.7309268E5
1440 1440 1.74398436E6
1440 1441 -8.7089168E5
1441 1440 -8.7309268E5
1441 1441 1.74398436E6
1441 1442 -8.7089168E5
1442 1441 -8.7309268E5
1442 1442 1.74398436E6
1442 1443 -8.7089168E5
1443 1442 -8.7309268E5
1443 1443 1.74398436E6
1443 1444 -8.7089168E5
1444 1443 -8.7309268E5
1444 1444 1.74398436E6
1444 1445 -8.7089168E5
1445 1444 -8.7309268E5
1445 1445 1.74398436E6
1445 1446 -8.7089168E5
1446 1445 -8.7309268E5
1446 1446 1.74398436E6
1446 1447 -8.7089168E5
1447 1446 -8.7309268E5
1447 1447 1.74398436E6
1447 1448 -8.7089168E5
1448 1447 -8.7309268E5
1448 1448 1.74398436E6
1448 1449 -8.7089168E5
1449 1448 -8.7309268E5
1449 1449 1.74398436E6
1449 1450 -8.7089168E5
1450 1449 -8.7309268E5
1450 1450 1.74398436E6
1450 1451 -8.7089168E5
1451 1450 -8.7309268E5
1451 1451 1.74398436E6
1451 1452 -8.7089168E5
1452 1451 -8.7309268E5
1452 1452 1.74398436E6
1452 1453 -8.7089168E5
1453 1452 -8.7309268E5
1453 1453 1.74398436E6
1453 1454 -8.7089168E5
1454 1453 -8.7309268E5
1454 1454 1.74398436E6
1454 1455 -8.7089168E5
1455 1454 -8.7309268E5
1455 1455 1.74398436E6
1455 1456 -8.7089168E5
1456 1455 -8.7309268E5
1456 1456 1.74398436E6
1456 1457 -8.7089168E5
1457 1456 -8.7309268E5
1457 1457 1.74398436E6
1457 1458 -8.7089168E5
1458 1457 -8.7309268E5
1458 1458 1.74398436E6
1458 1459 -8.7089168E5
1459 1458 -8.7309268E5
1459 1459 1.74398436E6
1459 1460 -8.7089168E5
1460 1459 -8.7309268E5
1460 1460 1.74398436E6
1460 1461 -8.7089168E5
1461 1460 -8.7309268E5
1461 1461 1.74398436E6
1461 1462 -8.7089168E5
1462 1461 -8.7309268E5
1462 1462 1.74398436E6
1462 1463 -8.7089168E5
1463 1462 -8.7309268E5
1463 1463 1.74398436E6
1463 1464 -8.7089168E5
1464 1463 -8.7309268E5
1464 1464 1.74398436E6
1464 1465 -8.7089168E5
1465 1464 -8.7309268E5
1465 1465 1.74398436E6
1465 1466 -8.7089168E5
1466 1465 -8.7309268E5
1466 1466 1.74398436E6
1466 1467 -8.7089168E5
1467 1466 -8.7309268E5
1467 1467 1.74398436E6
1467 1468 -8.7089168E5
1468 1467 -8.7309268E5
1468 1468 1.74398436E6
1468 1469 -8.7089168E5
1469 1468 -8.7309268E5
1469 1469 1.74398436E6
1469 1470 -8.7089168E5
1470 1469 -8.7309268E5
1470 1470 1.74398436E6
1470 1471 -8.7089168E5
1471 1470 -8.7309268E5
1471 1471 1.74398436E6
1471 1472 -8.7089168E5
1472 1471 -8.7309268E5
1472 1472 1.74398436E6
1472 1473 -8.7089168E5
1473 1472 -8.7309268E5
1473 1473 1.74398436E6
1473 1474 -8.7089168E5
1474 1473 -8.7309268E5
1474 1474 1.74398436E6
1474 1475 -8.7089168E5
1475 1474 -8.7309268E5
1475 1475 1.74398436E6
1475 1476 -8.7089168E5
1476 1475 -8.7309268E5
1476 1476 1.74398436E6
1476 1477 -8.7089168E5
1477 1476 -8.7309268E5
1477 1477 1.74398436E6
1477 1478 -8.7089168E5
1478 1477 -8.7309268E5
1478 1478 1.74398436E6
1478 1479 -8.7089168E5
1479 1478 -8.7309268E5
1479 1479 1.74398436E6
1479 1480 -8.7089168E5
1480 1479 -8.7309268E5
1480 1480 1.74398436E6
1480 1481 -8.7089168E5
1481 1480 -8.7309268E5
1481 1481 1.74398436E6
1481 1482 -8.7089168E5
1482 1481 -8.7309268E5
1482 1482 1.74398436E6
1482 1483 -8.7089168E5
1483 1482 -8.7309268E5
1483 1483 1.74398436E6
1483 1484 -8.7089168E5
1484 1483 -8.7309268E5
1484 1484 1.74398436E6
1484 1485 -8.7089168E5
1485 1484 -8.7309268E5
1485 1485 1.74398436E6
1485 1486 -8.7089168E5
1486 1485 -8.7309268E5
1486 1486 1.74398436E6
1486 1487 -8.7089168E5
1487 1486 -8.7309268E5
1487 1487 1.74398436E6
1487 1488 -8.7089168E5
1488 1487 -8.7309268E5
1488 1488 1.74398436E6
1488 1489 -8.7089168E5
1489 1488 -8.7309268E5
1489 1489 1.74398436E6
1489 1490 -8.7089168E5
1490 1489 -8.7309268E5
1490 1490 1.74398436E6
1490 1491 -8.7089168E5
1491 1490 -8.7309268E5
1491 1491 1.74398436E6
1491 1492 -8.7089168E5
1492 1491 -8.7309268E5
1492 1492 1.74398436E6
1492 1493 -8.7089168E5
1493 1492 -8.7309268E5
1493 1493 1.74398436E6
1493 1494 -8.7089168E5
1494 1493 -8.7309268E5
1494 1494 1.74398436E6
1494 1495 -8.7089168E5
1495 1494 -8.7309268E5
1495 1495 1.74398436E6
1495 1496 -8.7089168E5
1496 1495 -8.7309268E5
1496 1496 1.74398436E6
1496 1497 -8.7089168E5
1497 1496 -8.7309268E5
1497 1497 1.74398436E6
1497 1498 -8.7089168E5
1498 1497 -8.7309268E5
1498 1498 1.74398436E6
1498 1499 -8.7089168E5
1499 1498 -8.7309268E5
1499 1499 1.74398436E6
1499 1500 -8.7089168E5
1500 1499 -8.7309268E5
1500 1500 1.74398436E6
1500 1501 -8.7089168E5
1501 1500 -8.7309268E5
1501 1501 1.74398436E6
1501 1502 -8.7089168E5
1502 1501 -8.7309268E5
1502 1502 1.74398436E6
1502 1503 -8.7089168E5
1503 1502 -8.7309268E5
1503 1503 1.74398436E6
1503 1504 -8.7089168E5
1504 1503 -8.7309268E5
1504 1504 1.74398436E6
1504 1505 -8.7089168E5
1505 1504 -8.7309268E5
1505 1505 1.74398436E6
1505 1506 -8.7089168E5
1506 1505 -8.7309268E5
1506 1506 1.74398436E6
1506 1507 -8.7089168E5
1507 1506 -8.7309268E5
1507 1507 1.74398436E6
1507 1508 -8.7089168E5
1508 1507 -8.7309268E5
1508 1508 1.74398436E6
1508 1509 -8.7089168E5
1509 1508 -8.7309268E5
1509 1509 1.74398436E6
1509 1510 -8.7089168E5
1510 1509 -8.7309268E5
1510 1510 1.74398436E6
1510 1511 -8.7089168E5
1511 1510 -8.7309268E5
1511 1511 1.74398436E6
1511 1512 -8.7089168E5
1512 1511 -8.7309268E5
1512 1512 1.74398436E6
1512 1513 -8.7089168E5
1513 1512 -8.7309268E5
1513 1513 1.74398436E6
1513 1514 -8.7089168E5
1514 1513 -8.7309268E5
1514 1514 1.74398436E6
1514 1515 -8.7089168E5
1515 1514 -8.7309268E5
1515 1515 1.74398436E6
1515 1516 -8.7089168E5
1516 1515 -8.7309268E5
1516 1516 1.74398436E6
1516 1517 -8.7089168E5
1517 1516 -8.7309268E5
1517 1517 1.74398436E6
1517 1518 -8.7089168E5
1518 1517 -8.7309268E5
1518 1518 1.74398436E6
1518 1519 -8.7089168E5
1519 1518 -8.7309268E5
1519 1519 1.74398436E6
1519 1520 -8.7089168E5
1520 1519 -8.7309268E5
1520 1520 1.74398436E6
1520 1521 -8.7089168E5
1521 1520 -8.7309268E5
1521 1521 1.74398436E6
1521 1522 -8.7089168E5
1522 1521 -8.7309268E5
1522 1522 1.74398436E6
1522 1523 -8.7089168E5
1523 1522 -8.7309268E5
1523 1523 1.74398436E6
1523 1524 -8.7089168E5
1524 1523 -8.7309268E5
1524 1524 1.74398436E6
1524 1525 -8.7089168E5
1525 1524 -8.7309268E5
1525 1525 1.74398436E6
1525 1526 -8.7089168E5
1526 1525 -8.7309268E5
1526 1526 1.74398436E6
1526 1527 -8.7089168E5
1527 1526 -8.7309268E5
1527 1527 1.74398436E6
1527 1528 -8.7089168E5
1528 1527 -8.7309268E5
1528 1528 1.74398436E6
1528 1529 -8.7089168E5
1529 1528 -8.7309268E5
1529 1529 1.74398436E6
1529 1530 -8.7089168E5
1530 1529 -8.7309268E5
1530 1530 1.74398436E6
1530 1531 -8.7089168E5
1531 1530 -8.7309268E5
1531 1531 1.74398436E6
1531 1532 -8.7089168E5
1532 1531 -8.7309268E5
1532 1532 1.74398436E6
1532 1533 -8.7089168E5
1533 1532 -8.7309268E5
1533 1533 1.74398436E6
1533 1534 -8.7089168E5
1534 1533 -8.7309268E5
1534 1534 1.74398436E6
1534 1535 -8.7089168E5
1535 1534 -8.7309268E5
1535 1535 1.74398436E6
1535 1536 -8.7089168E5
1536 1535 -8.7309268E5
1536 1536 1.74398436E6
1536 1537 -8.7089168E5
1537 1536 -8.7309268E5
1537 1537 1.74398436E6
1537 1538 -8.7089168E5
1538 1537 -8.7309268E5
1538 1538 1.74398436E6
1538 1539 -8.7089168E5
1539 1538 -8.7309268E5
1539 1539 1.74398436E6
1539 1540 -8.7089168E5
1540 1539 -8.7309268E5
1540 1540 1.74398436E6
1540 1541 -8.7089168E5
1541 1540 -8.7309268E5
1541 1541 1.74398436E6
1541 1542 -8.7089168E5
1542 1541 -8.7309268E5
1542 1542 1.74398436E6
1542 1543 -8.7089168E5
1543 1542 -8.7309268E5
1543 1543 1.74398436E6
1543 1544 -8.7089168E5
1544 1543 -8.7309268E5
1544 1544 1.74398436E6
1544 1545 -8.7089168E5
1545 1544 -8.7309268E5
1545 1545 1.74398436E6
1545 1546 -8.7089168E5
1546 1545 -8.7309268E5
1546 1546 1.74398436E6
1546 1547 -8.7089168E5
1547 1546 -8.7309268E5
1547 1547 1.74398436E6
1547 1548 -8.7089168E5
1548 1547 -8.7309268E5
1548 1548 1.74398436E6
1548 1549 -8.7089168E5
1549 1548 -8.7309268E5
1549 1549 1.74398436E6
1549 1550 -8.7089168E5
1550 1549 -8.7309268E5
1550 1550 1.74398436E6
1550 1551 -8.7089168E5
1551 1550 -8.7309268E5
1551 1551 1.74398436E6
1551 1552 -8.7089168E5
1552 1551 -8.7309268E5
1552 1552 1.74398436E6
1552 1553 -8.7089168E5
1553 1552 -8.7309268E5
1553 1553 1.74398436E6
1553 1554 -8.7089168E5
1554 1553 -8.7309268E5
1554 1554 1.74398436E6
1554 1555 -8.7089168E5
1555 1554 -8.7309268E5
1555 1555 1.74398436E6
1555 1556 -8.7089168E5
1556 1555 -8.7309268E5
1556 1556 1.74398436E6
1556 1557 -8.7089168E5
1557 1556 -8.7309268E5
1557 1557 1.74398436E6
1557 1558 -8.7089168E5
1558 1557 -8.7309268E5
1558 1558 1.74398436E6
1558 1559 -8.7089168E5
1559 1558 -8.7309268E5
1559 1559 1.74398436E6
1559 1560 -8.7089168E5
1560 1559 -8.7309268E5
1560 1560 1.74398436E6
1560 1561 -8.7089168E5
1561 1560 -8.7309268E5
1561 1561 1.74398436E6
1561 1562 -8.7089168E5
1562 1561 -8.7309268E5
1562 1562 1.74398436E6
1562 1563 -8.7089168E5
1563 1562 -8.7309268E5
1563 1563 1.74398436E6
1563 1564 -8.7089168E5
1564 1563 -8.7309268E5
1564 1564 1.74398436E6
1564 1565 -8.7089168E5
1565 1564 -8.7309268E5
1565 1565 1.74398436E6
1565 1566 -8.7089168E5
1566 1565 -8.7309268E5
1566 1566 1.74398436E6
1566 1567 -8.7089168E5
1567 1566 -8.7309268E5
1567 1567 1.74398436E6
1567 1568 -8.7089168E5
1568 1567 -8.7309268E5
1568 1568 1.74398436E6
1568 1569 -8.7089168E5
1569 1568 -8.7309268E5
1569 1569 1.74398436E6
1569 1570 -8.7089168E5
1570 1569 -8.7309268E5
1570 1570 1.74398436E6
1570 1571 -8.7089168E5
1571 1570 -8.7309268E5
1571 1571 1.74398436E6
1571 1572 -8.7089168E5
1572 1571 -8.7309268E5
1572 1572 1.74398436E6
1572 1573 -8.7089168E5
1573 1572 -8.7309268E5
1573 1573 1.74398436E6
1573 1574 -8.7089168E5
1574 1573 -8.7309268E5
1574 1574 1.74398436E6
1574 1575 -8.7089168E5
1575 1574 -8.7309268E5
1575 1575 1.74398436E6
1575 1576 -8.7089168E5
1576 1575 -8.7309268E5
1576 1576 1.74398436E6
1576 1577 -8.7089168E5
1577 1576 -8.7309268E5
1577 1577 1.74398436E6
1577 1578 -8.7089168E5
1578 1577 -8.7309268E5
1578 1578 1.74398436E6
1578 1579 -8.7089168E5
1579 1578 -8.7309268E5
1579 1579 1.74398436E6
1579 1580 -8.7089168E5
1580 1579 -8.7309268E5
1580 1580 1.74398436E6
1580 1581 -8.7089168E5
1581 1580 -8.7309268E5
1581 1581 1.74398436E6
1581 1582 -8.7089168E5
1582 1581 -8.7309268E5
1582 1582 1.74398436E6
1582 1583 -8.7089168E5
1583 1582 -8.7309268E5
1583 1583 1.74398436E6
1583 1584 -8.7089168E5
1584 1583 -8.7309268E5
1584 1584 1.74398436E6
1584 1585 -8.7089168E5
1585 1584 -8.7309268E5
1585 1585 1.74398436E6
1585 1586 -8.7089168E5
1586 1585 -8.7309268E5
1586 1586 1.74398436E6
1586 1587 -8.7089168E5
1587 1586 -8.7309268E5
1587 1587 1.74398436E6
1587 1588 -8.7089168E5
1588 1587 -8.7309268E5
1588 1588 1.74398436E6
1588 1589 -8.7089168E5
1589 1588 -8.7309268E5
1589 1589 1.74398436E6
1589 1590 -8.7089168E5
1590 1589 -8.7309268E5
1590 1590 1.74398436E6
1590 1591 -8.7089168E5
1591 1590 -8.7309268E5
1591 1591 1.74398436E6
1591 1592 -8.7089168E5
1592 1591 -8.7309268E5
1592 1592 1.74398436E6
1592 1593 -8.7089168E5
1593 1592 -8.7309268E5
1593 1593 1.74398436E6
1593 1594 -8.7089168E5
1594 1593 -8.7309268E5
1594 1594 1.74398436E6
1594 1595 -8.7089168E5
1595 1594 -8.7309268E5
1595 1595 1.74398436E6
1595 1596 -8.7089168E5
1596 1595 -8.7309268E5
1596 1596 1.74398436E6
1596 1597 -8.7089168E5
1597 1596 -8.7309268E5
1597 1597 1.74398436E6
1597 1598 -8.7089168E5
1598 1597 -8.7309268E5
1598 1598 1.74398436E6
1598 1599 -8.7089168E5
1599 1598 -8.7309268E5
1599 1599 1.74398436E6
1599 1600 -8.7089168E5
1600 1599 -8.7309268E5
1600 1600 1.74398436E6
1600 1601 -8.7089168E5
1601 1600 -8.7309268E5
1601 1601 1.74398436E6
1601 1602 -8.7089168E5
1602 1601 -8.7309268E5
1602 1602 1.74398436E6
1602 1603 -8.7089168E5
1603 1602 -8.7309268E5
1603 1603 1.74398436E6
1603 1604 -8.7089168E5
1604 1603 -8.7309268E5
1604 1604 1.74398436E6
1604 1605 -8.7089168E5
1605 1604 -8.7309268E5
1605 1605 1.74398436E6
1605 1606 -8.7089168E5
1606 1605 -8.7309268E5
1606 1606 1.74398436E6
1606 1607 -8.7089168E5
1607 1606 -8.7309268E5
1607 1607 1.74398436E6
1607 1608 -8.7089168E5
1608 1607 -8.7309268E5
1608 1608 1.74398436E6
1608 1609 -8.7089168E5
1609 1608 -8.7309268E5
1609 1609 1.74398436E6
1609 1610 -8.7089168E5
1610 1609 -8.7309268E5
1610 1610 1.74398436E6
1610 1611 -8.7089168E5
1611 1610 -8.7309268E5
1611 1611 1.74398436E6
1611 1612 -8.7089168E5
1612 1611 -8.7309268E5
1612 1612 1.74398436E6
1612 1613 -8.7089168E5
1613 1612 -8.7309268E5
1613 1613 1.74398436E6
1613 1614 -8.7089168E5
1614 1613 -8.7309268E5
1614 1614 1.74398436E6
1614 1615 -8.7089168E5
1615 1614 -8.7309268E5
1615 1615 1.74398436E6
1615 1616 -8.7089168E5
1616 1615 -8.7309268E5
1616 1616 1.74398436E6
1616 1617 -8.7089168E5
1617 1616 -8.7309268E5
1617 1617 1.74398436E6
1617 1618 -8.7089168E5
1618 1617 -8.7309268E5
1618 1618 1.74398436E6
1618 1619 -8.7089168E5
1619 1618 -8.7309268E5
1619 1619 1.74398436E6
1619 1620 -8.7089168E5
1620 1619 -8.7309268E5
1620 1620 1.74398436E6
1620 1621 -8.7089168E5
1621 1620 -8.7309268E5
1621 1621 1.74398436E6
1621 1622 -8.7089168E5
1622 1621 -8.7309268E5
1622 1622 1.74398436E6
1622 1623 -8.7089168E5
1623 1622 -8.7309268E5
1623 1623 1.74398436E6
1623 1624 -8.7089168E5
1624 1623 -8.7309268E5
1624 1624 1.74398436E6
1624 1625 -8.7089168E5
1625 1624 -8.7309268E5
1625 1625 1.74398436E6
1625 1626 -8.7089168E5
1626 1625 -8.7309268E5
1626 1626 1.74398436E6
1626 1627 -8.7089168E5
1627 1626 -8.7309268E5
1627 1627 1.74398436E6
1627 1628 -8.7089168E5
1628 1627 -8.7309268E5
1628 1628 1.74398436E6
1628 1629 -8.7089168E5
1629 1628 -8.7309268E5
1629 1629 1.74398436E6
1629 1630 -8.7089168E5
1630 1629 -8.7309268E5
1630 1630 1.74398436E6
1630 1631 -8.7089168E5
1631 1630 -8.7309268E5
1631 1631 1.74398436E6
1631 1632 -8.7089168E5
1632 1631 -8.7309268E5
1632 1632 1.74398436E6
1632 1633 -8.7089168E5
1633 1632 -8.7309268E5
1633 1633 1.74398436E6
1633 1634 -8.7089168E5
1634 1633 -8.7309268E5
1634 1634 1.74398436E6
1634 1635 -8.7089168E5
1635 1634 -8.7309268E5
1635 1635 1.74398436E6
1635 1636 -8.7089168E5
1636 1635 -8.7309268E5
1636 1636 1.74398436E6
1636 1637 -8.7089168E5
1637 1636 -8.7309268E5
1637 1637 1.74398436E6
1637 1638 -8.7089168E5
1638 1637 -8.7309268E5
1638 1638 1.74398436E6
1638 1639 -8.7089168E5
1639 1638 -8.7309268E5
1639 1639 1.74398436E6
1639 1640 -8.7089168E5
1640 1639 -8.7309268E5
1640 1640 1.74398436E6
1640 1641 -8.7089168E5
1641 1640 -8.7309268E5
1641 1641 1.74398436E6
1641 1642 -8.7089168E5
1642 1641 -8.7309268E5
1642 1642 1.74398436E6
1642 1643 -8.7089168E5
1643 1642 -8.7309268E5
1643 1643 1.74398436E6
1643 1644 -8.7089168E5
1644 1643 -8.7309268E5
1644 1644 1.74398436E6
1644 1645 -8.7089168E5
1645 1644 -8.7309268E5
1645 1645 1.74398436E6
1645 1646 -8.7089168E5
1646 1645 -8.7309268E5
1646 1646 1.74398436E6
1646 1647 -8.7089168E5
1647 1646 -8.7309268E5
1647 1647 1.74398436E6
1647 1648 -8.7089168E5
1648 1647 -8.7309268E5
1648 1648 1.74398436E6
1648 1649 -8.7089168E5
1649 1648 -8.7309268E5
1649 1649 1.74398436E6
1649 1650 -8.7089168E5
1650 1649 -8.7309268E5
1650 1650 1.74398436E6
1650 1651 -8.7089168E5
1651 1650 -8.7309268E5
1651 1651 1.74398436E6
1651 1652 -8.7089168E5
1652 1651 -8.7309268E5
1652 1652 1.74398436E6
1652 1653 -8.7089168E5
1653 1652 -8.7309268E5
1653 1653 1.74398436E6
1653 1654 -8.7089168E5
1654 1653 -8.7309268E5
1654 1654 1.74398436E6
1654 1655 -8.7089168E5
1655 1654 -8.7309268E5
1655 1655 1.74398436E6
1655 1656 -8.7089168E5
1656 1655 -8.7309268E5
1656 1656 1.74398436E6
1656 1657 -8.7089168E5
1657 1656 -8.7309268E5
1657 1657 1.74398436E6
1657 1658 -8.7089168E5
1658 1657 -8.7309268E5
1658 1658 1.74398436E6
1658 1659 -8.7089168E5
1659 1658 -8.7309268E5
1659 1659 1.74398436E6
1659 1660 -8.7089168E5
1660 1659 -8.7309268E5
1660 1660 1.74398436E6
1660 1661 -8.7089168E5
1661 1660 -8.7309268E5
1661 1661 1.74398436E6
1661 1662 -8.7089168E5
1662 1661 -8.7309268E5
1662 1662 1.74398436E6
1662 1663 -8.7089168E5
1663 1662 -8.7309268E5
1663 1663 1.74398436E6
1663 1664 -8.7089168E5
1664 1663 -8.7309268E5
1664 1664 1.74398436E6
1664 1665 -8.7089168E5
1665 1664 -8.7309268E5
1665 1665 1.74398436E6
1665 1666 -8.7089168E5
1666 1665 -8.7309268E5
1666 1666 1.74398436E6
1666 1667 -8.7089168E5
1667 1666 -8.7309268E5
1667 1667 1.74398436E6
1667 1668 -8.7089168E5
1668 1667 -8.7309268E5
1668 1668 1.74398436E6
1668 1669 -8.7089168E5
1669 1668 -8.7309268E5
1669 1669 1.74398436E6
1669 1670 -8.7089168E5
1670 1669 -8.7309268E5
1670 1670 1.74398436E6
1670 1671 -8.7089168E5
1671 1670 -8.7309268E5
1671 1671 1.74398436E6
1671 1672 -8.7089168E5
1672 1671 -8.7309268E5
1672 1672 1.74398436E6
1672 1673 -8.7089168E5
1673 1672 -8.7309268E5
1673 1673 1.74398436E6
1673 1674 -8.7089168E5
1674 1673 -8.7309268E5
1674 1674 1.74398436E6
1674 1675 -8.7089168E5
1675 1674 -8.7309268E5
1675 1675 1.74398436E6
1675 1676 -8.7089168E5
1676 1675 -8.7309268E5
1676 1676 1.74398436E6
1676 1677 -8.7089168E5
1677 1676 -8.7309268E5
1677 1677 1.74398436E6
1677 1678 -8.7089168E5
1678 1677 -8.7309268E5
1678 1678 1.74398436E6
1678 1679 -8.7089168E5
1679 1678 -8.7309268E5
1679 1679 1.74398436E6
1679 1680 -8.7089168E5
1680 1679 -8.7309268E5
1680 1680 1.74398436E6
1680 1681 -8.7089168E5
1681 1680 -8.7309268E5
1681 1681 1.74398436E6
1681 1682 -8.7089168E5
1682 1681 -8.7309268E5
1682 1682 1.74398436E6
1682 1683 -8.7089168E5
1683 1682 -8.7309268E5
1683 1683 1.74398436E6
1683 1684 -8.7089168E5
1684 1683 -8.7309268E5
1684 1684 1.74398436E6
1684 1685 -8.7089168E5
1685 1684 -8.7309268E5
1685 1685 1.74398436E6
1685 1686 -8.7089168E5
1686 1685 -8.7309268E5
1686 1686 1.74398436E6
1686 1687 -8.7089168E5
1687 1686 -8.7309268E5
1687 1687 1.74398436E6
1687 1688 -8.7089168E5
1688 1687 -8.7309268E5
1688 1688 1.74398436E6
1688 1689 -8.7089168E5
1689 1688 -8.7309268E5
1689 1689 1.74398436E6
1689 1690 -8.7089168E5
1690 1689 -8.7309268E5
1690 1690 1.74398436E6
1690 1691 -8.7089168E5
1691 1690 -8.7309268E5
1691 1691 1.74398436E6
1691 1692 -8.7089168E5
1692 1691 -8.7309268E5
1692 1692 1.74398436E6
1692 1693 -8.7089168E5
1693 1692 -8.7309268E5
1693 1693 1.74398436E6
1693 1694 -8.7089168E5
1694 1693 -8.7309268E5
1694 1694 1.74398436E6
1694 1695 -8.7089168E5
1695 1694 -8.7309268E5
1695 1695 1.74398436E6
1695 1696 -8.7089168E5
1696 1695 -8.7309268E5
1696 1696 1.74398436E6
1696 1697 -8.7089168E5
1697 1696 -8.7309268E5
1697 1697 1.74398436E6
1697 1698 -8.7089168E5
1698 1697 -8.7309268E5
1698 1698 1.74398436E6
1698 1699 -8.7089168E5
1699 1698 -8.7309268E5
1699 1699 1.74398436E6
1699 1700 -8.7089168E5
1700 1699 -8.7309268E5
1700 1700 1.74398436E6
1700 1701 -8.7089168E5
1701 1700 -8.7309268E5
1701 1701 1.74398436E6
1701 1702 -8.7089168E5
1702 1701 -8.7309268E5
1702 1702 1.74398436E6
1702 1703 -8.7089168E5
1703 1702 -8.7309268E5
1703 1703 1.74398436E6
1703 1704 -8.7089168E5
1704 1703 -8.7309268E5
1704 1704 1.74398436E6
1704 1705 -8.7089168E5
1705 1704 -8.7309268E5
1705 1705 1.74398436E6
1705 1706 -8.7089168E5
1706 1705 -8.7309268E5
1706 1706 1.74398436E6
1706 1707 -8.7089168E5
1707 1706 -8.7309268E5
1707 1707 1.74398436E6
1707 1708 -8.7089168E5
1708 1707 -8.7309268E5
1708 1708 1.74398436E6
1708 1709 -8.7089168E5
1709 1708 -8.7309268E5
1709 1709 1.74398436E6
1709 1710 -8.7089168E5
1710 1709 -8.7309268E5
1710 1710 1.74398436E6
1710 1711 -8.7089168E5
1711 1710 -8.7309268E5
1711 1711 1.74398436E6
1711 1712 -8.7089168E5
1712 1711 -8.7309268E5
1712 1712 1.74398436E6
1712 1713 -8.7089168E5
1713 1712 -8.7309268E5
1713 1713 1.74398436E6
1713 1714 -8.7089168E5
1714 1713 -8.7309268E5
1714 1714 1.74398436E6
1714 1715 -8.7089168E5
1715 1714 -8.7309268E5
1715 1715 1.74398436E6
1715 1716 -8.7089168E5
1716 1715 -8.7309268E5
1716 1716 1.74398436E6
1716 1717 -8.7089168E5
1717 1716 -8.7309268E5
1717 1717 1.74398436E6
1717 1718 -8.7089168E5
1718 1717 -8.7309268E5
1718 1718 1.74398436E6
1718 1719 -8.7089168E5
1719 1718 -8.7309268E5
1719 1719 1.74398436E6
1719 1720 -8.7089168E5
1720 1719 -8.7309268E5
1720 1720 1.74398436E6
1720 1721 -8.7089168E5
1721 1720 -8.7309268E5
1721 1721 1.74398436E6
1721 1722 -8.7089168E5
1722 1721 -8.7309268E5
1722 1722 1.74398436E6
1722 1723 -8.7089168E5
1723 1722 -8.7309268E5
1723 1723 1.74398436E6
1723 1724 -8.7089168E5
1724 1723 -8.7309268E5
1724 1724 1.74398436E6
1724 1725 -8.7089168E5
1725 1724 -8.7309268E5
1725 1725 1.74398436E6
1725 1726 -8.7089168E5
1726 1725 -8.7309268E5
1726 1726 1.74398436E6
1726 1727 -8.7089168E5
1727 1726 -8.7309268E5
1727 1727 1.74398436E6
1727 1728 -8.7089168E5
1728 1727 -8.7309268E5
1728 1728 1.74398436E6
1728 1729 -8.7089168E5
1729 1728 -8.7309268E5
1729 1729 1.74398436E6
1729 1730 -8.7089168E5
1730 1729 -8.7309268E5
1730 1730 1.74398436E6
1730 1731 -8.7089168E5
1731 1730 -8.7309268E5
1731 1731 1.74398436E6
1731 1732 -8.7089168E5
1732 1731 -8.7309268E5
1732 1732 1.74398436E6
1732 1733 -8.7089168E5
1733 1732 -8.7309268E5
1733 1733 1.74398436E6
1733 1734 -8.7089168E5
1734 1733 -8.7309268E5
1734 1734 1.74398436E6
1734 1735 -8.7089168E5
1735 1734 -8.7309268E5
1735 1735 1.74398436E6
1735 1736 -8.7089168E5
1736 1735 -8.7309268E5
1736 1736 1.74398436E6
1736 1737 -8.7089168E5
1737 1736 -8.7309268E5
1737 1737 1.74398436E6
1737 1738 -8.7089168E5
1738 1737 -8.7309268E5
1738 1738 1.74398436E6
1738 1739 -8.7089168E5
1739 1738 -8.7309268E5
1739 1739 1.74398436E6
1739 1740 -8.7089168E5
1740 1739 -8.7309268E5
1740 1740 1.74398436E6
1740 1741 -8.7089168E5
1741 1740 -8.7309268E5
1741 1741 1.74398436E6
1741 1742 -8.7089168E5
1742 1741 -8.7309268E5
1742 1742 1.74398436E6
1742 1743 -8.7089168E5
1743 1742 -8.7309268E5
1743 1743 1.74398436E6
1743 1744 -8.7089168E5
1744 1743 -8.7309268E5
1744 1744 1.74398436E6
1744 1745 -8.7089168E5
1745 1744 -8.7309268E5
1745 1745 1.74398436E6
1745 1746 -8.7089168E5
1746 1745 -8.7309268E5
1746 1746 1.74398436E6
1746 1747 -8.7089168E5
1747 1746 -8.7309268E5
1747 1747 1.74398436E6
1747 1748 -8.7089168E5
1748 1747 -8.7309268E5
1748 1748 1.74398436E6
1748 1749 -8.7089168E5
1749 1748 -8.7309268E5
1749 1749 1.74398436E6
1749 1750 -8.7089168E5
1750 1749 -8.7309268E5
1750 1750 1.74398436E6
1750 1751 -8.7089168E5
1751 1750 -8.7309268E5
1751 1751 1.74398436E6
1751 1752 -8.7089168E5
1752 1751 -8.7309268E5
1752 1752 1.74398436E6
1752 1753 -8.7089168E5
1753 1752 -8.7309268E5
1753 1753 1.74398436E6
1753 1754 -8.7089168E5
1754 1753 -8.7309268E5
1754 1754 1.74398436E6
1754 1755 -8.7089168E5
1755 1754 -8.7309268E5
1755 1755 1.74398436E6
1755 1756 -8.7089168E5
1756 1755 -8.7309268E5
1756 1756 1.74398436E6
1756 1757 -8.7089168E5
1757 1756 -8.7309268E5
1757 1757 1.74398436E6
1757 1758 -8.7089168E5
1758 1757 -8.7309268E5
1758 1758 1.74398436E6
1758 1759 -8.7089168E5
1759 1758 -8.7309268E5
1759 1759 1.74398436E6
1759 1760 -8.7089168E5
1760 1759 -8.7309268E5
1760 1760 1.74398436E6
1760 1761 -8.7089168E5
1761 1760 -8.7309268E5
1761 1761 1.74398436E6
1761 1762 -8.7089168E5
1762 1761 -8.7309268E5
1762 1762 1.74398436E6
1762 1763 -8.7089168E5
1763 1762 -8.7309268E5
1763 1763 1.74398436E6
1763 1764 -8.7089168E5
1764 1763 -8.7309268E5
1764 1764 1.74398436E6
1764 1765 -8.7089168E5
1765 1764 -8.7309268E5
1765 1765 1.74398436E6
1765 1766 -8.7089168E5
1766 1765 -8.7309268E5
1766 1766 1.74398436E6
1766 1767 -8.7089168E5
1767 1766 -8.7309268E5
1767 1767 1.74398436E6
1767 1768 -8.7089168E5
1768 1767 -8.7309268E5
1768 1768 1.74398436E6
1768 1769 -8.7089168E5
1769 1768 -8.7309268E5
1769 1769 1.74398436E6
1769 1770 -8.7089168E5
1770 1769 -8.7309268E5
1770 1770 1.74398436E6
1770 1771 -8.7089168E5
1771 1770 -8.7309268E5
1771 1771 1.74398436E6
1771 1772 -8.7089168E5
1772 1771 -8.7309268E5
1772 1772 1.74398436E6
1772 1773 -8.7089168E5
1773 1772 -8.7309268E5
1773 1773 1.74398436E6
1773 1774 -8.7089168E5
1774 1773 -8.7309268E5
1774 1774 1.74398436E6
1774 1775 -8.7089168E5
1775 1774 -8.7309268E5
1775 1775 1.74398436E6
1775 1776 -8.7089168E5
1776 1775 -8.7309268E5
1776 1776 1.74398436E6
1776 1777 -8.7089168E5
1777 1776 -8.7309268E5
1777 1777 1.74398436E6
1777 1778 -8.7089168E5
1778 1777 -8.7309268E5
1778 1778 1.74398436E6
1778 1779 -8.7089168E5
1779 1778 -8.7309268E5
1779 1779 1.74398436E6
1779 1780 -8.7089168E5
1780 1779 -8.7309268E5
1780 1780 1.74398436E6
1780 1781 -8.7089168E5
1781 1780 -8.7309268E5
1781 1781 1.74398436E6
1781 1782 -8.7089168E5
1782 1781 -8.7309268E5
1782 1782 1.74398436E6
1782 1783 -8.7089168E5
1783 1782 -8.7309268E5
1783 1783 1.74398436E6
1783 1784 -8.7089168E5
1784 1783 -8.7309268E5
1784 1784 1.74398436E6
1784 1785 -8.7089168E5
1785 1784 -8.7309268E5
1785 1785 1.74398436E6
1785 1786 -8.7089168E5
1786 1785 -8.7309268E5
1786 1786 1.74398436E6
1786 1787 -8.7089168E5
1787 1786 -8.7309268E5
1787 1787 1.74398436E6
1787 1788 -8.7089168E5
1788 1787 -8.7309268E5
1788 1788 1.74398436E6
1788 1789 -8.7089168E5
1789 1788 -8.7309268E5
1789 1789 1.74398436E6
1789 1790 -8.7089168E5
1790 1789 -8.7309268E5
1790 1790 1.74398436E6
1790 1791 -8.7089168E5
1791 1790 -8.7309268E5
1791 1791 1.74398436E6
1791 1792 -8.7089168E5
1792 1791 -8.7309268E5
1792 1792 1.74398436E6
1792 1793 -8.7089168E5
1793 1792 -8.7309268E5
1793 1793 1.74398436E6
1793 1794 -8.7089168E5
1794 1793 -8.7309268E5
1794 1794 1.74398436E6
1794 1795 -8.7089168E5
1795 1794 -8.7309268E5
1795 1795 1.74398436E6
1795 1796 -8.7089168E5
1796 1795 -8.7309268E5
1796 1796 1.74398436E6
1796 1797 -8.7089168E5
1797 1796 -8.7309268E5
1797 1797 1.74398436E6
1797 1798 -8.7089168E5
1798 1797 -8.7309268E5
1798 1798 1.74398436E6
1798 1799 -8.7089168E5
1799 1798 -8.7309268E5
1799 1799 1.74398436E6
1799 1800 -8.7089168E5
1800 1799 -8.7309268E5
1800 1800 1.74398436E6
1800 1801 -8.7089168E5
1801 1800 -8.7309268E5
1801 1801 1.74398436E6
1801 1802 -8.7089168E5
1802 1801 -8.7309268E5
1802 1802 1.74398436E6
1802 1803 -8.7089168E5
1803 1802 -8.7309268E5
1803 1803 1.74398436E6
1803 1804 -8.7089168E5
1804 1803 -8.7309268E5
1804 1804 1.74398436E6
1804 1805 -8.7089168E5
1805 1804 -8.7309268E5
1805 1805 1.74398436E6
1805 1806 -8.7089168E5
1806 1805 -8.7309268E5
1806 1806 1.74398436E6
1806 1807 -8.7089168E5
1807 1806 -8.7309268E5
1807 1807 1.74398436E6
1807 1808 -8.7089168E5
1808 1807 -8.7309268E5
1808 1808 1.74398436E6
1808 1809 -8.7089168E5
1809 1808 -8.7309268E5
1809 1809 1.74398436E6
1809 1810 -8.7089168E5
1810 1809 -8.7309268E5
1810 1810 1.74398436E6
1810 1811 -8.7089168E5
1811 1810 -8.7309268E5
1811 1811 1.74398436E6
1811 1812 -8.7089168E5
1812 1811 -8.7309268E5
1812 1812 1.74398436E6
1812 1813 -8.7089168E5
1813 1812 -8.7309268E5
1813 1813 1.74398436E6
1813 1814 -8.7089168E5
1814 1813 -8.7309268E5
1814 1814 1.74398436E6
1814 1815 -8.7089168E5
1815 1814 -8.7309268E5
1815 1815 1.74398436E6
1815 1816 -8.7089168E5
1816 1815 -8.7309268E5
1816 1816 1.74398436E6
1816 1817 -8.7089168E5
1817 1816 -8.7309268E5
1817 1817 1.74398436E6
1817 1818 -8.7089168E5
1818 1817 -8.7309268E5
1818 1818 1.74398436E6
1818 1819 -8.7089168E5
1819 1818 -8.7309268E5
1819 1819 1.74398436E6
1819 1820 -8.7089168E5
1820 1819 -8.7309268E5
1820 1820 1.74398436E6
1820 1821 -8.7089168E5
1821 1820 -8.7309268E5
1821 1821 1.74398436E6
1821 1822 -8.7089168E5
1822 1821 -8.7309268E5
1822 1822 1.74398436E6
1822 1823 -8.7089168E5
1823 1822 -8.7309268E5
1823 1823 1.74398436E6
1823 1824 -8.7089168E5
1824 1823 -8.7309268E5
1824 1824 1.74398436E6
1824 1825 -8.7089168E5
1825 1824 -8.7309268E5
1825 1825 1.74398436E6
1825 1826 -8.7089168E5
1826 1825 -8.7309268E5
1826 1826 1.74398436E6
1826 1827 -8.7089168E5
1827 1826 -8.7309268E5
1827 1827 1.74398436E6
1827 1828 -8.7089168E5
1828 1827 -8.7309268E5
1828 1828 1.74398436E6
1828 1829 -8.7089168E5
1829 1828 -8.7309268E5
1829 1829 1.74398436E6
1829 1830 -8.7089168E5
1830 1829 -8.7309268E5
1830 1830 1.74398436E6
1830 1831 -8.7089168E5
1831 1830 -8.7309268E5
1831 1831 1.74398436E6
1831 1832 -8.7089168E5
1832 1831 -8.7309268E5
1832 1832 1.74398436E6
1832 1833 -8.7089168E5
1833 1832 -8.7309268E5
1833 1833 1.74398436E6
1833 1834 -8.7089168E5
1834 1833 -8.7309268E5
1834 1834 1.74398436E6
1834 1835 -8.7089168E5
1835 1834 -8.7309268E5
1835 1835 1.74398436E6
1835 1836 -8.7089168E5
1836 1835 -8.7309268E5
1836 1836 1.74398436E6
1836 1837 -8.7089168E5
1837 1836 -8.7309268E5
1837 1837 1.74398436E6
1837 1838 -8.7089168E5
1838 1837 -8.7309268E5
1838 1838 1.74398436E6
1838 1839 -8.7089168E5
1839 1838 -8.7309268E5
1839 1839 1.74398436E6
1839 1840 -8.7089168E5
1840 1839 -8.7309268E5
1840 1840 1.74398436E6
1840 1841 -8.7089168E5
1841 1840 -8.7309268E5
1841 1841 1.74398436E6
1841 1842 -8.7089168E5
1842 1841 -8.7309268E5
1842 1842 1.74398436E6
1842 1843 -8.7089168E5
1843 1842 -8.7309268E5
1843 1843 1.74398436E6
1843 1844 -8.7089168E5
1844 1843 -8.7309268E5
1844 1844 1.74398436E6
1844 1845 -8.7089168E5
1845 1844 -8.7309268E5
1845 1845 1.74398436E6
1845 1846 -8.7089168E5
1846 1845 -8.7309268E5
1846 1846 1.74398436E6
1846 1847 -8.7089168E5
1847 1846 -8.7309268E5
1847 1847 1.74398436E6
1847 1848 -8.7089168E5
1848 1847 -8.7309268E5
1848 1848 1.74398436E6
1848 1849 -8.7089168E5
1849 1848 -8.7309268E5
1849 1849 1.74398436E6
1849 1850 -8.7089168E5
1850 1849 -8.7309268E5
1850 1850 1.74398436E6
1850 1851 -8.7089168E5
1851 1850 -8.7309268E5
1851 1851 1.74398436E6
1851 1852 -8.7089168E5
1852 1851 -8.7309268E5
1852 1852 1.74398436E6
1852 1853 -8.7089168E5
1853 1852 -8.7309268E5
1853 1853 1.74398436E6
1853 1854 -8.7089168E5
1854 1853 -8.7309268E5
1854 1854 1.74398436E6
1854 1855 -8.7089168E5
1855 1854 -8.7309268E5
1855 1855 1.74398436E6
1855 1856 -8.7089168E5
1856 1855 -8.7309268E5
1856 1856 1.74398436E6
1856 1857 -8.7089168E5
1857 1856 -8.7309268E5
1857 1857 1.74398436E6
1857 1858 -8.7089168E5
1858 1857 -8.7309268E5
1858 1858 1.74398436E6
1858 1859 -8.7089168E5
1859 1858 -8.7309268E5
1859 1859 1.74398436E6
1859 1860 -8.7089168E5
1860 1859 -8.7309268E5
1860 1860 1.74398436E6
1860 1861 -8.7089168E5
1861 1860 -8.7309268E5
1861 1861 1.74398436E6
1861 1862 -8.7089168E5
1862 1861 -8.7309268E5
1862 1862 1.74398436E6
1862 1863 -8.7089168E5
1863 1862 -8.7309268E5
1863 1863 1.74398436E6
1863 1864 -8.7089168E5
1864 1863 -8.7309268E5
1864 1864 1.74398436E6
1864 1865 -8.7089168E5
1865 1864 -8.7309268E5
1865 1865 1.74398436E6
1865 1866 -8.7089168E5
1866 1865 -8.7309268E5
1866 1866 1.74398436E6
1866 1867 -8.7089168E5
1867 1866 -8.7309268E5
1867 1867 1.74398436E6
1867 1868 -8.7089168E5
1868 1867 -8.7309268E5
1868 1868 1.74398436E6
1868 1869 -8.7089168E5
1869 1868 -8.7309268E5
1869 1869 1.74398436E6
1869 1870 -8.7089168E5
1870 1869 -8.7309268E5
1870 1870 1.74398436E6
1870 1871 -8.7089168E5
1871 1870 -8.7309268E5
1871 1871 1.74398436E6
1871 1872 -8.7089168E5
1872 1871 -8.7309268E5
1872 1872 1.74398436E6
1872 1873 -8.7089168E5
1873 1872 -8.7309268E5
1873 1873 1.74398436E6
1873 1874 -8.7089168E5
1874 1873 -8.7309268E5
1874 1874 1.74398436E6
1874 1875 -8.7089168E5
1875 1874 -8.7309268E5
1875 1875 1.74398436E6
1875 1876 -8.7089168E5
1876 1875 -8.7309268E5
1876 1876 1.74398436E6
1876 1877 -8.7089168E5
1877 1876 -8.7309268E5
1877 1877 1.74398436E6
1877 1878 -8.7089168E5
1878 1877 -8.7309268E5
1878 1878 1.74398436E6
1878 1879 -8.7089168E5
1879 1878 -8.7309268E5
1879 1879 1.74398436E6
1879 1880 -8.7089168E5
1880 1879 -8.7309268E5
1880 1880 1.74398436E6
1880 1881 -8.7089168E5
1881 1880 -8.7309268E5
1881 1881 1.74398436E6
1881 1882 -8.7089168E5
1882 1881 -8.7309268E5
1882 1882 1.74398436E6
1882 1883 -8.7089168E5
1883 1882 -8.7309268E5
1883 1883 1.74398436E6
1883 1884 -8.7089168E5
1884 1883 -8.7309268E5
1884 1884 1.74398436E6
1884 1885 -8.7089168E5
1885 1884 -8.7309268E5
1885 1885 1.74398436E6
1885 1886 -8.7089168E5
1886 1885 -8.7309268E5
1886 1886 1.74398436E6
1886 1887 -8.7089168E5
1887 1886 -8.7309268E5
1887 1887 1.74398436E6
1887 1888 -8.7089168E5
1888 1887 -8.7309268E5
1888 1888 1.74398436E6
1888 1889 -8.7089168E5
1889 1888 -8.7309268E5
1889 1889 1.74398436E6
1889 1890 -8.7089168E5
1890 1889 -8.7309268E5
1890 1890 1.74398436E6
1890 1891 -8.7089168E5
1891 1890 -8.7309268E5
1891 1891 1.74398436E6
1891 1892 -8.7089168E5
1892 1891 -8.7309268E5
1892 1892 1.74398436E6
1892 1893 -8.7089168E5
1893 1892 -8.7309268E5
1893 1893 1.74398436E6
1893 1894 -8.7089168E5
1894 1893 -8.7309268E5
1894 1894 1.74398436E6
1894 1895 -8.7089168E5
1895 1894 -8.7309268E5
1895 1895 1.74398436E6
1895 1896 -8.7089168E5
1896 1895 -8.7309268E5
1896 1896 1.74398436E6
1896 1897 -8.7089168E5
1897 1896 -8.7309268E5
1897 1897 1.74398436E6
1897 1898 -8.7089168E5
1898 1897 -8.7309268E5
1898 1898 1.74398436E6
1898 1899 -8.7089168E5
1899 1898 -8.7309268E5
1899 1899 1.74398436E6
1899 1900 -8.7089168E5
1900 1899 -8.7309268E5
1900 1900 1.74398436E6
1900 1901 -8.7089168E5
1901 1900 -8.7309268E5
1901 1901 1.74398436E6
1901 1902 -8.7089168E5
1902 1901 -8.7309268E5
1902 1902 1.74398436E6
1902 1903 -8.7089168E5
1903 1902 -8.7309268E5
1903 1903 1.74398436E6
1903 1904 -8.7089168E5
1904 1903 -8.7309268E5
1904 1904 1.74398436E6
1904 1905 -8.7089168E5
1905 1904 -8.7309268E5
1905 1905 1.74398436E6
1905 1906 -8.7089168E5
1906 1905 -8.7309268E5
1906 1906 1.74398436E6
1906 1907 -8.7089168E5
1907 1906 -8.7309268E5
1907 1907 1.74398436E6
1907 1908 -8.7089168E5
1908 1907 -8.7309268E5
1908 1908 1.74398436E6
1908 1909 -8.7089168E5
1909 1908 -8.7309268E5
1909 1909 1.74398436E6
1909 1910 -8.7089168E5
1910 1909 -8.7309268E5
1910 1910 1.74398436E6
1910 1911 -8.7089168E5
1911 1910 -8.7309268E5
1911 1911 1.74398436E6
1911 1912 -8.7089168E5
1912 1911 -8.7309268E5
1912 1912 1.74398436E6
1912 1913 -8.7089168E5
1913 1912 -8.7309268E5
1913 1913 1.74398436E6
1913 1914 -8.7089168E5
1914 1913 -8.7309268E5
1914 1914 1.74398436E6
1914 1915 -8.7089168E5
1915 1914 -8.7309268E5
1915 1915 1.74398436E6
1915 1916 -8.7089168E5
1916 1915 -8.7309268E5
1916 1916 1.74398436E6
1916 1917 -8.7089168E5
1917 1916 -8.7309268E5
1917 1917 1.74398436E6
1917 1918 -8.7089168E5
1918 1917 -8.7309268E5
1918 1918 1.74398436E6
1918 1919 -8.7089168E5
1919 1918 -8.7309268E5
1919 1919 1.74398436E6
1919 1920 -8.7089168E5
1920 1919 -8.7309268E5
1920 1920 1.74398436E6
1920 1921 -8.7089168E5
1921 1920 -8.7309268E5
1921 1921 1.74398436E6
1921 1922 -8.7089168E5
1922 1921 -8.7309268E5
1922 1922 1.74398436E6
1922 1923 -8.7089168E5
1923 1922 -8.7309268E5
1923 1923 1.74398436E6
1923 1924 -8.7089168E5
1924 1923 -8.7309268E5
1924 1924 1.74398436E6
1924 1925 -8.7089168E5
1925 1924 -8.7309268E5
1925 1925 1.74398436E6
1925 1926 -8.7089168E5
1926 1925 -8.7309268E5
1926 1926 1.74398436E6
1926 1927 -8.7089168E5
1927 1926 -8.7309268E5
1927 1927 1.74398436E6
1927 1928 -8.7089168E5
1928 1927 -8.7309268E5
1928 1928 1.74398436E6
1928 1929 -8.7089168E5
1929 1928 -8.7309268E5
1929 1929 1.74398436E6
1929 1930 -8.7089168E5
1930 1929 -8.7309268E5
1930 1930 1.74398436E6
1930 1931 -8.7089168E5
1931 1930 -8.7309268E5
1931 1931 1.74398436E6
1931 1932 -8.7089168E5
1932 1931 -8.7309268E5
1932 1932 1.74398436E6
1932 1933 -8.7089168E5
1933 1932 -8.7309268E5
1933 1933 1.74398436E6
1933 1934 -8.7089168E5
1934 1933 -8.7309268E5
1934 1934 1.74398436E6
1934 1935 -8.7089168E5
1935 1934 -8.7309268E5
1935 1935 1.74398436E6
1935 1936 -8.7089168E5
1936 1935 -8.7309268E5
1936 1936 1.74398436E6
1936 1937 -8.7089168E5
1937 1936 -8.7309268E5
1937 1937 1.74398436E6
1937 1938 -8.7089168E5
1938 1937 -8.7309268E5
1938 1938 1.74398436E6
1938 1939 -8.7089168E5
1939 1938 -8.7309268E5
1939 1939 1.74398436E6
1939 1940 -8.7089168E5
1940 1939 -8.7309268E5
1940 1940 1.74398436E6
1940 1941 -8.7089168E5
1941 1940 -8.7309268E5
1941 1941 1.74398436E6
1941 1942 -8.7089168E5
1942 1941 -8.7309268E5
1942 1942 1.74398436E6
1942 1943 -8.7089168E5
1943 1942 -8.7309268E5
1943 1943 1.74398436E6
1943 1944 -8.7089168E5
1944 1943 -8.7309268E5
1944 1944 1.74398436E6
1944 1945 -8.7089168E5
1945 1944 -8.7309268E5
1945 1945 1.74398436E6
1945 1946 -8.7089168E5
1946 1945 -8.7309268E5
1946 1946 1.74398436E6
1946 1947 -8.7089168E5
1947 1946 -8.7309268E5
1947 1947 1.74398436E6
1947 1948 -8.7089168E5
1948 1947 -8.7309268E5
1948 1948 1.74398436E6
1948 1949 -8.7089168E5
1949 1948 -8.7309268E5
1949 1949 1.74398436E6
1949 1950 -8.7089168E5
1950 1949 -8.7309268E5
1950 1950 1.74398436E6
1950 1951 -8.7089168E5
1951 1950 -8.7309268E5
1951 1951 1.74398436E6
1951 1952 -8.7089168E5
1952 1951 -8.7309268E5
1952 1952 1.74398436E6
1952 1953 -8.7089168E5
1953 1952 -8.7309268E5
1953 1953 1.74398436E6
1953 1954 -8.7089168E5
1954 1953 -8.7309268E5
1954 1954 1.74398436E6
1954 1955 -8.7089168E5
1955 1954 -8.7309268E5
1955 1955 1.74398436E6
1955 1956 -8.7089168E5
1956 1955 -8.7309268E5
1956 1956 1.74398436E6
1956 1957 -8.7089168E5
1957 1956 -8.7309268E5
1957 1957 1.74398436E6
1957 1958 -8.7089168E5
1958 1957 -8.7309268E5
1958 1958 1.74398436E6
1958 1959 -8.7089168E5
1959 1958 -8.7309268E5
1959 1959 1.74398436E6
1959 1960 -8.7089168E5
1960 1959 -8.7309268E5
1960 1960 1.74398436E6
1960 1961 -8.7089168E5
1961 1960 -8.7309268E5
1961 1961 1.74398436E6
1961 1962 -8.7089168E5
1962 1961 -8.7309268E5
1962 1962 1.74398436E6
1962 1963 -8.7089168E5
1963 1962 -8.7309268E5
1963 1963 1.74398436E6
1963 1964 -8.7089168E5
1964 1963 -8.7309268E5
1964 1964 1.74398436E6
1964 1965 -8.7089168E5
1965 1964 -8.7309268E5
1965 1965 1.74398436E6
1965 1966 -8.7089168E5
1966 1965 -8.7309268E5
1966 1966 1.74398436E6
1966 1967 -8.7089168E5
1967 1966 -8.7309268E5
1967 1967 1.74398436E6
1967 1968 -8.7089168E5
1968 1967 -8.7309268E5
1968 1968 1.74398436E6
1968 1969 -8.7089168E5
1969 1968 -8.7309268E5
1969 1969 1.74398436E6
1969 1970 -8.7089168E5
1970 1969 -8.7309268E5
1970 1970 1.74398436E6
1970 1971 -8.7089168E5
1971 1970 -8.7309268E5
1971 1971 1.74398436E6
1971 1972 -8.7089168E5
1972 1971 -8.7309268E5
1972 1972 1.74398436E6
1972 1973 -8.7089168E5
1973 1972 -8.7309268E5
1973 1973 1.74398436E6
1973 1974 -8.7089168E5
1974 1973 -8.7309268E5
1974 1974 1.74398436E6
1974 1975 -8.7089168E5
1975 1974 -8.7309268E5
1975 1975 1.74398436E6
1975 1976 -8.7089168E5
1976 1975 -8.7309268E5
1976 1976 1.74398436E6
1976 1977 -8.7089168E5
1977 1976 -8.7309268E5
1977 1977 1.74398436E6
1977 1978 -8.7089168E5
1978 1977 -8.7309268E5
1978 1978 1.74398436E6
1978 1979 -8.7089168E5
1979 1978 -8.7309268E5
1979 1979 1.74398436E6
1979 1980 -8.7089168E5
1980 1979 -8.7309268E5
1980 1980 1.74398436E6
1980 1981 -8.7089168E5
1981 1980 -8.7309268E5
1981 1981 1.74398436E6
1981 1982 -8.7089168E5
1982 1981 -8.7309268E5
1982 1982 1.74398436E6
1982 1983 -8.7089168E5
1983 1982 -8.7309268E5
1983 1983 1.74398436E6
1983 1984 -8.7089168E5
1984 1983 -8.7309268E5
1984 1984 1.74398436E6
1984 1985 -8.7089168E5
1985 1984 -8.7309268E5
1985 1985 1.74398436E6
1985 1986 -8.7089168E5
1986 1985 -8.7309268E5
1986 1986 1.74398436E6
1986 1987 -8.7089168E5
1987 1986 -8.7309268E5
1987 1987 1.74398436E6
1987 1988 -8.7089168E5
1988 1987 -8.7309268E5
1988 1988 1.74398436E6
1988 1989 -8.7089168E5
1989 1988 -8.7309268E5
1989 1989 1.74398436E6
1989 1990 -8.7089168E5
1990 1989 -8.7309268E5
1990 1990 1.74398436E6
1990 1991 -8.7089168E5
1991 1990 -8.7309268E5
1991 1991 1.74398436E6
1991 1992 -8.7089168E5
1992 1991 -8.7309268E5
1992 1992 1.74398436E6
1992 1993 -8.7089168E5
1993 1992 -8.7309268E5
1993 1993 1.74398436E6
1993 1994 -8.7089168E5
1994 1993 -8.7309268E5
1994 1994 1.74398436E6
1994 1995 -8.7089168E5
1995 1994 -8.7309268E5
1995 1995 1.74398436E6
1995 1996 -8.7089168E5
1996 1995 -8.7309268E5
1996 1996 1.74398436E6
1996 1997 -8.7089168E5
1997 1996 -8.7309268E5
1997 1997 1.74398436E6
1997 1998 -8.7089168E5
1998 1997 -8.7309268E5
1998 1998 1.74398436E6
1998 1999 -8.7089168E5
1999 1998 -8.7309268E5
1999 1999 1.74398436E6
1999 2000 -8.7089168E5
2000 1999 -8.7309268E5
2000 2000 1.74398436E6
2000 2001 -8.7089168E5
2001 2000 -8.7309268E5
2001 2001 1.74398436E6
2001 2002 -8.7089168E5
2002 2001 -8.7309268E5
2002 2002 1.74398436E6
2002 2003 -8.7089168E5
2003 2002 -8.7309268E5
2003 2003 1.74398436E6
2003 2004 -8.7089168E5
2004 2003 -8.7309268E5
2004 2004 1.74398436E6
2004 2005 -8.7089168E5
2005 2004 -8.7309268E5
2005 2005 1.74398436E6
2005 2006 -8.7089168E5
2006 2005 -8.7309268E5
2006 2006 1.74398436E6
2006 2007 -8.7089168E5
2007 2006 -8.7309268E5
2007 2007 1.74398436E6
2007 2008 -8.7089168E5
2008 2007 -8.7309268E5
2008 2008 1.74398436E6
2008 2009 -8.7089168E5
2009 2008 -8.7309268E5
2009 2009 1.74398436E6
2009 2010 -8.7089168E5
2010 2009 -8.7309268E5
2010 2010 1.74398436E6
2010 2011 -8.7089168E5
2011 2010 -8.7309268E5
2011 2011 1.74398436E6
2011 2012 -8.7089168E5
2012 2011 -8.7309268E5
2012 2012 1.74398436E6
2012 2013 -8.7089168E5
2013 2012 -8.7309268E5
2013 2013 1.74398436E6
2013 2014 -8.7089168E5
2014 2013 -8.7309268E5
2014 2014 1.74398436E6
2014 2015 -8.7089168E5
2015 2014 -8.7309268E5
2015 2015 1.74398436E6
2015 2016 -8.7089168E5
2016 2015 -8.7309268E5
2016 2016 1.74398436E6
2016 2017 -8.7089168E5
2017 2016 -8.7309268E5
2017 2017 1.74398436E6
2017 2018 -8.7089168E5
2018 2017 -8.7309268E5
2018 2018 1.74398436E6
2018 2019 -8.7089168E5
2019 2018 -8.7309268E5
2019 2019 1.74398436E6
2019 2020 -8.7089168E5
2020 2019 -8.7309268E5
2020 2020 1.74398436E6
2020 2021 -8.7089168E5
2021 2020 -8.7309268E5
2021 2021 1.74398436E6
2021 2022 -8.7089168E5
2022 2021 -8.7309268E5
2022 2022 1.74398436E6
2022 2023 -8.7089168E5
2023 2022 -8.7309268E5
2023 2023 1.74398436E6
2023 2024 -8.7089168E5
2024 2023 -8.7309268E5
2024 2024 1.74398436E6
2024 2025 -8.7089168E5
2025 2024 -8.7309268E5
2025 2025 1.74398436E6
2025 2026 -8.7089168E5
2026 2025 -8.7309268E5
2026 2026 1.74398436E6
2026 2027 -8.7089168E5
2027 2026 -8.7309268E5
2027 2027 1.74398436E6
2027 2028 -8.7089168E5
2028 2027 -8.7309268E5
2028 2028 1.74398436E6
2028 2029 -8.7089168E5
2029 2028 -8.7309268E5
2029 2029 1.74398436E6
2029 2030 -8.7089168E5
2030 2029 -8.7309268E5
2030 2030 1.74398436E6
2030 2031 -8.7089168E5
2031 2030 -8.7309268E5
2031 2031 1.74398436E6
2031 2032 -8.7089168E5
2032 2031 -8.7309268E5
2032 2032 1.74398436E6
2032 2033 -8.7089168E5
2033 2032 -8.7309268E5
2033 2033 1.74398436E6
2033 2034 -8.7089168E5
2034 2033 -8.7309268E5
2034 2034 1.74398436E6
2034 2035 -8.7089168E5
2035 2034 -8.7309268E5
2035 2035 1.74398436E6
2035 2036 -8.7089168E5
2036 2035 -8.7309268E5
2036 2036 1.74398436E6
2036 2037 -8.7089168E5
2037 2036 -8.7309268E5
2037 2037 1.74398436E6
2037 2038 -8.7089168E5
2038 2037 -8.7309268E5
2038 2038 1.74398436E6
2038 2039 -8.7089168E5
2039 2038 -8.7309268E5
2039 2039 1.74398436E6
2039 2040 -8.7089168E5
2040 2039 -8.7309268E5
2040 2040 1.74398436E6
2040 2041 -8.7089168E5
2041 2040 -8.7309268E5
2041 2041 1.74398436E6
2041 2042 -8.7089168E5
2042 2041 -8.7309268E5
2042 2042 1.74398436E6
2042 2043 -8.7089168E5
2043 2042 -8.7309268E5
2043 2043 1.74398436E6
2043 2044 -8.7089168E5
2044 2043 -8.7309268E5
2044 2044 1.74398436E6
2044 2045 -8.7089168E5
2045 2044 -8.7309268E5
2045 2045 1.74398436E6
2045 2046 -8.7089168E5
2046 2045 -8.7309268E5
2046 2046 1.74398436E6
2046 2047 -8.7089168E5
2047 2046 -8.7309268E5
2047 2047 1.74398436E6
2047 2048 -8.7089168E5
2048 2047 -8.7309268E5
2048 2048 1.74398436E6
2048 2049 -8.7089168E5
2049 2048 -8.7309268E5
2049 2049 1.74398436E6
2049 2050 -8.7089168E5
2050 2049 -8.7309268E5
2050 2050 1.74398436E6
2050 2051 -8.7089168E5
2051 2050 -8.7309268E5
2051 2051 1.74398436E6
2051 2052 -8.7089168E5
2052 2051 -8.7309268E5
2052 2052 1.74398436E6
2052 2053 -8.7089168E5
2053 2052 -8.7309268E5
2053 2053 1.74398436E6
2053 2054 -8.7089168E5
2054 2053 -8.7309268E5
2054 2054 1.74398436E6
2054 2055 -8.7089168E5
2055 2054 -8.7309268E5
2055 2055 1.74398436E6
2055 2056 -8.7089168E5
2056 2055 -8.7309268E5
2056 2056 1.74398436E6
2056 2057 -8.7089168E5
2057 2056 -8.7309268E5
2057 2057 1.74398436E6
2057 2058 -8.7089168E5
2058 2057 -8.7309268E5
2058 2058 1.74398436E6
2058 2059 -8.7089168E5
2059 2058 -8.7309268E5
2059 2059 1.74398436E6
2059 2060 -8.7089168E5
2060 2059 -8.7309268E5
2060 2060 1.74398436E6
2060 2061 -8.7089168E5
2061 2060 -8.7309268E5
2061 2061 1.74398436E6
2061 2062 -8.7089168E5
2062 2061 -8.7309268E5
2062 2062 1.74398436E6
2062 2063 -8.7089168E5
2063 2062 -8.7309268E5
2063 2063 1.74398436E6
2063 2064 -8.7089168E5
2064 2063 -8.7309268E5
2064 2064 1.74398436E6
2064 2065 -8.7089168E5
2065 2064 -8.7309268E5
2065 2065 1.74398436E6
2065 2066 -8.7089168E5
2066 2065 -8.7309268E5
2066 2066 1.74398436E6
2066 2067 -8.7089168E5
2067 2066 -8.7309268E5
2067 2067 1.74398436E6
2067 2068 -8.7089168E5
2068 2067 -8.7309268E5
2068 2068 1.74398436E6
2068 2069 -8.7089168E5
2069 2068 -8.7309268E5
2069 2069 1.74398436E6
2069 2070 -8.7089168E5
2070 2069 -8.7309268E5
2070 2070 1.74398436E6
2070 2071 -8.7089168E5
2071 2070 -8.7309268E5
2071 2071 1.74398436E6
2071 2072 -8.7089168E5
2072 2071 -8.7309268E5
2072 2072 1.74398436E6
2072 2073 -8.7089168E5
2073 2072 -8.7309268E5
2073 2073 1.74398436E6
2073 2074 -8.7089168E5
2074 2073 -8.7309268E5
2074 2074 1.74398436E6
2074 2075 -8.7089168E5
2075 2074 -8.7309268E5
2075 2075 1.74398436E6
2075 2076 -8.7089168E5
2076 2075 -8.7309268E5
2076 2076 1.74398436E6
2076 2077 -8.7089168E5
2077 2076 -8.7309268E5
2077 2077 1.74398436E6
2077 2078 -8.7089168E5
2078 2077 -8.7309268E5
2078 2078 1.74398436E6
2078 2079 -8.7089168E5
2079 2078 -8.7309268E5
2079 2079 1.74398436E6
2079 2080 -8.7089168E5
2080 2079 -8.7309268E5
2080 2080 1.74398436E6
2080 2081 -8.7089168E5
2081 2080 -8.7309268E5
2081 2081 1.74398436E6
2081 2082 -8.7089168E5
2082 2081 -8.7309268E5
2082 2082 1.74398436E6
2082 2083 -8.7089168E5
2083 2082 -8.7309268E5
2083 2083 1.74398436E6
2083 2084 -8.7089168E5
2084 2083 -8.7309268E5
2084 2084 1.74398436E6
2084 2085 -8.7089168E5
2085 2084 -8.7309268E5
2085 2085 1.74398436E6
2085 2086 -8.7089168E5
2086 2085 -8.7309268E5
2086 2086 1.74398436E6
2086 2087 -8.7089168E5
2087 2086 -8.7309268E5
2087 2087 1.74398436E6
2087 2088 -8.7089168E5
2088 2087 -8.7309268E5
2088 2088 1.74398436E6
2088 2089 -8.7089168E5
2089 2088 -8.7309268E5
2089 2089 1.74398436E6
2089 2090 -8.7089168E5
2090 2089 -8.7309268E5
2090 2090 1.74398436E6
2090 2091 -8.7089168E5
2091 2090 -8.7309268E5
2091 2091 1.74398436E6
2091 2092 -8.7089168E5
2092 2091 -8.7309268E5
2092 2092 1.74398436E6
2092 2093 -8.7089168E5
2093 2092 -8.7309268E5
2093 2093 1.74398436E6
2093 2094 -8.7089168E5
2094 2093 -8.7309268E5
2094 2094 1.74398436E6
2094 2095 -8.7089168E5
2095 2094 -8.7309268E5
2095 2095 1.74398436E6
2095 2096 -8.7089168E5
2096 2095 -8.7309268E5
2096 2096 1.74398436E6
2096 2097 -8.7089168E5
2097 2096 -8.7309268E5
2097 2097 1.74398436E6
2097 2098 -8.7089168E5
2098 2097 -8.7309268E5
2098 2098 1.74398436E6
2098 2099 -8.7089168E5
2099 2098 -8.7309268E5
2099 2099 1.74398436E6
2099 2100 -8.7089168E5
2100 2099 -8.7309268E5
2100 2100 1.74398436E6
2100 2101 -8.7089168E5
2101 2100 -8.7309268E5
2101 2101 1.74398436E6
2101 2102 -8.7089168E5
2102 2101 -8.7309268E5
2102 2102 1.74398436E6
2102 2103 -8.7089168E5
2103 2102 -8.7309268E5
2103 2103 1.74398436E6
2103 2104 -8.7089168E5
2104 2103 -8.7309268E5
2104 2104 1.74398436E6
2104 2105 -8.7089168E5
2105 2104 -8.7309268E5
2105 2105 1.74398436E6
2105 2106 -8.7089168E5
2106 2105 -8.7309268E5
2106 2106 1.74398436E6
2106 2107 -8.7089168E5
2107 2106 -8.7309268E5
2107 2107 1.74398436E6
2107 2108 -8.7089168E5
2108 2107 -8.7309268E5
2108 2108 1.74398436E6
2108 2109 -8.7089168E5
2109 2108 -8.7309268E5
2109 2109 1.74398436E6
2109 2110 -8.7089168E5
2110 2109 -8.7309268E5
2110 2110 1.74398436E6
2110 2111 -8.7089168E5
2111 2110 -8.7309268E5
2111 2111 1.74398436E6
2111 2112 -8.7089168E5
2112 2111 -8.7309268E5
2112 2112 1.74398436E6
2112 2113 -8.7089168E5
2113 2112 -8.7309268E5
2113 2113 1.74398436E6
2113 2114 -8.7089168E5
2114 2113 -8.7309268E5
2114 2114 1.74398436E6
2114 2115 -8.7089168E5
2115 2114 -8.7309268E5
2115 2115 1.74398436E6
2115 2116 -8.7089168E5
2116 2115 -8.7309268E5
2116 2116 1.74398436E6
2116 2117 -8.7089168E5
2117 2116 -8.7309268E5
2117 2117 1.74398436E6
2117 2118 -8.7089168E5
2118 2117 -8.7309268E5
2118 2118 1.74398436E6
2118 2119 -8.7089168E5
2119 2118 -8.7309268E5
2119 2119 1.74398436E6
2119 2120 -8.7089168E5
2120 2119 -8.7309268E5
2120 2120 1.74398436E6
2120 2121 -8.7089168E5
2121 2120 -8.7309268E5
2121 2121 1.74398436E6
2121 2122 -8.7089168E5
2122 2121 -8.7309268E5
2122 2122 1.74398436E6
2122 2123 -8.7089168E5
2123 2122 -8.7309268E5
2123 2123 1.74398436E6
2123 2124 -8.7089168E5
2124 2123 -8.7309268E5
2124 2124 1.74398436E6
2124 2125 -8.7089168E5
2125 2124 -8.7309268E5
2125 2125 1.74398436E6
2125 2126 -8.7089168E5
2126 2125 -8.7309268E5
2126 2126 1.74398436E6
2126 2127 -8.7089168E5
2127 2126 -8.7309268E5
2127 2127 1.74398436E6
2127 2128 -8.7089168E5
2128 2127 -8.7309268E5
2128 2128 1.74398436E6
2128 2129 -8.7089168E5
2129 2128 -8.7309268E5
2129 2129 1.74398436E6
2129 2130 -8.7089168E5
2130 2129 -8.7309268E5
2130 2130 1.74398436E6
2130 2131 -8.7089168E5
2131 2130 -8.7309268E5
2131 2131 1.74398436E6
2131 2132 -8.7089168E5
2132 2131 -8.7309268E5
2132 2132 1.74398436E6
2132 2133 -8.7089168E5
2133 2132 -8.7309268E5
2133 2133 1.74398436E6
2133 2134 -8.7089168E5
2134 2133 -8.7309268E5
2134 2134 1.74398436E6
2134 2135 -8.7089168E5
2135 2134 -8.7309268E5
2135 2135 1.74398436E6
2135 2136 -8.7089168E5
2136 2135 -8.7309268E5
2136 2136 1.74398436E6
2136 2137 -8.7089168E5
2137 2136 -8.7309268E5
2137 2137 1.74398436E6
2137 2138 -8.7089168E5
2138 2137 -8.7309268E5
2138 2138 1.74398436E6
2138 2139 -8.7089168E5
2139 2138 -8.7309268E5
2139 2139 1.74398436E6
2139 2140 -8.7089168E5
2140 2139 -8.7309268E5
2140 2140 1.74398436E6
2140 2141 -8.7089168E5
2141 2140 -8.7309268E5
2141 2141 1.74398436E6
2141 2142 -8.7089168E5
2142 2141 -8.7309268E5
2142 2142 1.74398436E6
2142 2143 -8.7089168E5
2143 2142 -8.7309268E5
2143 2143 1.74398436E6
2143 2144 -8.7089168E5
2144 2143 -8.7309268E5
2144 2144 1.74398436E6
2144 2145 -8.7089168E5
2145 2144 -8.7309268E5
2145 2145 1.74398436E6
2145 2146 -8.7089168E5
2146 2145 -8.7309268E5
2146 2146 1.74398436E6
2146 2147 -8.7089168E5
2147 2146 -8.7309268E5
2147 2147 1.74398436E6
2147 2148 -8.7089168E5
2148 2147 -8.7309268E5
2148 2148 1.74398436E6
2148 2149 -8.7089168E5
2149 2148 -8.7309268E5
2149 2149 1.74398436E6
2149 2150 -8.7089168E5
2150 2149 -8.7309268E5
2150 2150 1.74398436E6
2150 2151 -8.7089168E5
2151 2150 -8.7309268E5
2151 2151 1.74398436E6
2151 2152 -8.7089168E5
2152 2151 -8.7309268E5
2152 2152 1.74398436E6
2152 2153 -8.7089168E5
2153 2152 -8.7309268E5
2153 2153 1.74398436E6
2153 2154 -8.7089168E5
2154 2153 -8.7309268E5
2154 2154 1.74398436E6
2154 2155 -8.7089168E5
2155 2154 -8.7309268E5
2155 2155 1.74398436E6
2155 2156 -8.7089168E5
2156 2155 -8.7309268E5
2156 2156 1.74398436E6
2156 2157 -8.7089168E5
2157 2156 -8.7309268E5
2157 2157 1.74398436E6
2157 2158 -8.7089168E5
2158 2157 -8.7309268E5
2158 2158 1.74398436E6
2158 2159 -8.7089168E5
2159 2158 -8.7309268E5
2159 2159 1.74398436E6
2159 2160 -8.7089168E5
2160 2159 -8.7309268E5
2160 2160 1.74398436E6
2160 2161 -8.7089168E5
2161 2160 -8.7309268E5
2161 2161 1.74398436E6
2161 2162 -8.7089168E5
2162 2161 -8.7309268E5
2162 2162 1.74398436E6
2162 2163 -8.7089168E5
2163 2162 -8.7309268E5
2163 2163 1.74398436E6
2163 2164 -8.7089168E5
2164 2163 -8.7309268E5
2164 2164 1.74398436E6
2164 2165 -8.7089168E5
2165 2164 -8.7309268E5
2165 2165 1.74398436E6
2165 2166 -8.7089168E5
2166 2165 -8.7309268E5
2166 2166 1.74398436E6
2166 2167 -8.7089168E5
2167 2166 -8.7309268E5
2167 2167 1.74398436E6
2167 2168 -8.7089168E5
2168 2167 -8.7309268E5
2168 2168 1.74398436E6
2168 2169 -8.7089168E5
2169 2168 -8.7309268E5
2169 2169 1.74398436E6
2169 2170 -8.7089168E5
2170 2169 -8.7309268E5
2170 2170 1.74398436E6
2170 2171 -8.7089168E5
2171 2170 -8.7309268E5
2171 2171 1.74398436E6
2171 2172 -8.7089168E5
2172 2171 -8.7309268E5
2172 2172 1.74398436E6
2172 2173 -8.7089168E5
2173 2172 -8.7309268E5
2173 2173 1.74398436E6
2173 2174 -8.7089168E5
2174 2173 -8.7309268E5
2174 2174 1.74398436E6
2174 2175 -8.7089168E5
2175 2174 -8.7309268E5
2175 2175 1.74398436E6
2175 2176 -8.7089168E5
2176 2175 -8.7309268E5
2176 2176 1.74398436E6
2176 2177 -8.7089168E5
2177 2176 -8.7309268E5
2177 2177 1.74398436E6
2177 2178 -8.7089168E5
2178 2177 -8.7309268E5
2178 2178 1.74398436E6
2178 2179 -8.7089168E5
2179 2178 -8.7309268E5
2179 2179 1.74398436E6
2179 2180 -8.7089168E5
2180 2179 -8.7309268E5
2180 2180 1.74398436E6
2180 2181 -8.7089168E5
2181 2180 -8.7309268E5
2181 2181 1.74398436E6
2181 2182 -8.7089168E5
2182 2181 -8.7309268E5
2182 2182 1.74398436E6
2182 2183 -8.7089168E5
2183 2182 -8.7309268E5
2183 2183 1.74398436E6
2183 2184 -8.7089168E5
2184 2183 -8.7309268E5
2184 2184 1.74398436E6
2184 2185 -8.7089168E5
2185 2184 -8.7309268E5
2185 2185 1.74398436E6
2185 2186 -8.7089168E5
2186 2185 -8.7309268E5
2186 2186 1.74398436E6
2186 2187 -8.7089168E5
2187 2186 -8.7309268E5
2187 2187 1.74398436E6
2187 2188 -8.7089168E5
2188 2187 -8.7309268E5
2188 2188 1.74398436E6
2188 2189 -8.7089168E5
2189 2188 -8.7309268E5
2189 2189 1.74398436E6
2189 2190 -8.7089168E5
2190 2189 -8.7309268E5
2190 2190 1.74398436E6
2190 2191 -8.7089168E5
2191 2190 -8.7309268E5
2191 2191 1.74398436E6
2191 2192 -8.7089168E5
2192 2191 -8.7309268E5
2192 2192 1.74398436E6
2192 2193 -8.7089168E5
2193 2192 -8.7309268E5
2193 2193 1.74398436E6
2193 2194 -8.7089168E5
2194 2193 -8.7309268E5
2194 2194 1.74398436E6
2194 2195 -8.7089168E5
2195 2194 -8.7309268E5
2195 2195 1.74398436E6
2195 2196 -8.7089168E5
2196 2195 -8.7309268E5
2196 2196 1.74398436E6
2196 2197 -8.7089168E5
2197 2196 -8.7309268E5
2197 2197 1.74398436E6
2197 2198 -8.7089168E5
2198 2197 -8.7309268E5
2198 2198 1.74398436E6
2198 2199 -8.7089168E5
2199 2198 -8.7309268E5
2199 2199 1.74398436E6
2199 2200 -8.7089168E5
2200 2199 -8.7309268E5
2200 2200 1.74398436E6
