%%MatrixMarket matrix coordinate real general
% 1D convection-diffusion (-eps*u'' + beta*u' = f), central FD, n=2000, eps=0.1, beta=1.0, kappa~=459310
2000 2000 5998
1 1 8.008002000000001E5
1 2 -3.9939960000000003E5
2 1 -4.0140060000000003E5
2 2 8.008002000000001E5
2 3 -3.9939960000000003E5
3 2 -4.0140060000000003E5
3 3 8.008002000000001E5
3 4 -3.9939960000000003E5
4 3 -4.0140060000000003E5
4 4 8.008002000000001E5
4 5 -3.9939960000000003E5
5 4 -4.0140060000000003E5
5 5 8.008002000000001E5
5 6 -3.9939960000000003E5
6 5 -4.0140060000000003E5
6 6 8.008002000000001E5
6 7 -3.9939960000000003E5
7 6 -4.0140060000000003E5
7 7 8.008002000000001E5
7 8 -3.9939960000000003E5
8 7 -4.0140060000000003E5
8 8 8.008002000000001E5
8 9 -3.9939960000000003E5
9 8 -4.0140060000000003E5
9 9 8.008002000000001E5
9 10 -3.9939960000000003E5
10 9 -4.0140060000000003E5
10 10 8.008002000000001E5
10 11 -3.9939960000000003E5
11 10 -4.0140060000000003E5
11 11 8.008002000000001E5
11 12 -3.9939960000000003E5
12 11 -4.0140060000000003E5
12 12 8.008002000000001E5
12 13 -3.9939960000000003E5
13 12 -4.0140060000000003E5
13 13 8.008002000000001E5
13 14 -3.9939960000000003E5
14 13 -4.0140060000000003E5
14 14 8.008002000000001E5
14 15 -3.9939960000000003E5
15 14 -4.0140060000000003E5
15 15 8.008002000000001E5
15 16 -3.9939960000000003E5
16 15 -4.0140060000000003E5
16 16 8.008002000000001E5
16 17 -3.9939960000000003E5
17 16 -4.0140060000000003E5
17 17 8.008002000000001E5
17 18 -3.9939960000000003E5
18 17 -4.0140060000000003E5
18 18 8.008002000000001E5
18 19 -3.9939960000000003E5
19 18 -4.0140060000000003E5
19 19 8.008002000000001E5
19 20 -3.9939960000000003E5
20 19 -4.0140060000000003E5
20 20 8.008002000000001E5
20 21 -3.9939960000000003E5
21 20 -4.0140060000000003E5
21 21 8.008002000000001E5
21 22 -3.9939960000000003E5
22 21 -4.0140060000000003E5
22 22 8.008002000000001E5
22 23 -3.9939960000000003E5
23 22 -4.0140060000000003E5
23 23 8.008002000000001E5
23 24 -3.9939960000000003E5
24 23 -4.0140060000000003E5
24 24 8.008002000000001E5
24 25 -3.9939960000000003E5
25 24 -4.0140060000000003E5
25 25 8.008002000000001E5
25 26 -3.9939960000000003E5
26 25 -4.0140060000000003E5
26 26 8.008002000000001E5
26 27 -3.9939960000000003E5
27 26 -4.0140060000000003E5
27 27 8.008002000000001E5
27 28 -3.9939960000000003E5
28 27 -4.0140060000000003E5
28 28 8.008002000000001E5
28 29 -3.9939960000000003E5
29 28 -4.0140060000000003E5
29 29 8.008002000000001E5
29 30 -3.9939960000000003E5
30 29 -4.0140060000000003E5
30 30 8.008002000000001E5
30 31 -3.9939960000000003E5
31 30 -4.0140060000000003E5
31 31 8.008002000000001E5
31 32 -3.9939960000000003E5
32 31 -4.0140060000000003E5
32 32 8.008002000000001E5
32 33 -3.9939960000000003E5
33 32 -4.0140060000000003E5
33 33 8.008002000000001E5
33 34 -3.9939960000000003E5
34 33 -4.0140060000000003E5
34 34 8.008002000000001E5
34 35 -3.9939960000000003E5
35 34 -4.0140060000000003E5
35 35 8.008002000000001E5
35 36 -3.9939960000000003E5
36 35 -4.0140060000000003E5
36 36 8.008002000000001E5
36 37 -3.9939960000000003E5
37 36 -4.0140060000000003E5
37 37 8.008002000000001E5
37 38 -3.9939960000000003E5
38 37 -4.0140060000000003E5
38 38 8.008002000000001E5
38 39 -3.9939960000000003E5
39 38 -4.0140060000000003E5
39 39 8.008002000000001E5
39 40 -3.9939960000000003E5
40 39 -4.0140060000000003E5
40 40 8.008002000000001E5
40 41 -3.9939960000000003E5
41 40 -4.0140060000000003E5
41 41 8.008002000000001E5
41 42 -3.9939960000000003E5
42 41 -4.0140060000000003E5
42 42 8.008002000000001E5
42 43 -3.9939960000000003E5
43 42 -4.0140060000000003E5
43 43 8.008002000000001E5
43 44 -3.9939960000000003E5
44 43 -4.0140060000000003E5
44 44 8.008002000000001E5
44 45 -3.9939960000000003E5
45 44 -4.0140060000000003E5
45 45 8.008002000000001E5
45 46 -3.9939960000000003E5
46 45 -4.0140060000000003E5
46 46 8.008002000000001E5
46 47 -3.9939960000000003E5
47 46 -4.0140060000000003E5
47 47 8.008002000000001E5
47 48 -3.9939960000000003E5
48 47 -4.0140060000000003E5
48 48 8.008002000000001E5
48 49 -3.9939960000000003E5
49 48 -4.0140060000000003E5
49 49 8.008002000000001E5
49 50 -3.9939960000000003E5
50 49 -4.0140060000000003E5
50 50 8.008002000000001E5
50 51 -3.9939960000000003E5
51 50 -4.0140060000000003E5
51 51 8.008002000000001E5
51 52 -3.9939960000000003E5
52 51 -4.0140060000000003E5
52 52 8.008002000000001E5
52 53 -3.9939960000000003E5
53 52 -4.0140060000000003E5
53 53 8.008002000000001E5
53 54 -3.9939960000000003E5
54 53 -4.0140060000000003E5
54 54 8.008002000000001E5
54 55 -3.9939960000000003E5
55 54 -4.0140060000000003E5
55 55 8.008002000000001E5
55 56 -3.9939960000000003E5
56 55 -4.0140060000000003E5
56 56 8.008002000000001E5
56 57 -3.9939960000000003E5
57 56 -4.0140060000000003E5
57 57 8.008002000000001E5
57 58 -3.9939960000000003E5
58 57 -4.0140060000000003E5
58 58 8.008002000000001E5
58 59 -3.9939960000000003E5
59 58 -4.0140060000000003E5
59 59 8.008002000000001E5
59 60 -3.9939960000000003E5
60 59 -4.0140060000000003E5
60 60 8.008002000000001E5
60 61 -3.9939960000000003E5
61 60 -4.0140060000000003E5
61 61 8.008002000000001E5
61 62 -3.9939960000000003E5
62 61 -4.0140060000000003E5
62 62 8.008002000000001E5
62 63 -3.9939960000000003E5
63 62 -4.0140060000000003E5
63 63 8.008002000000001E5
63 64 -3.9939960000000003E5
64 63 -4.0140060000000003E5
64 64 8.008002000000001E5
64 65 -3.9939960000000003E5
65 64 -4.0140060000000003E5
65 65 8.008002000000001E5
65 66 -3.9939960000000003E5
66 65 -4.0140060000000003E5
66 66 8.008002000000001E5
66 67 -3.9939960000000003E5
67 66 -4.0140060000000003E5
67 67 8.008002000000001E5
67 68 -3.9939960000000003E5
68 67 -4.0140060000000003E5
68 68 8.008002000000001E5
68 69 -3.9939960000000003E5
69 68 -4.0140060000000003E5
69 69 8.008002000000001E5
69 70 -3.9939960000000003E5
70 69 -4.0140060000000003E5
70 70 8.008002000000001E5
70 71 -3.9939960000000003E5
71 70 -4.0140060000000003E5
71 71 8.008002000000001E5
71 72 -3.9939960000000003E5
72 71 -4.0140060000000003E5
72 72 8.008002000000001E5
72 73 -3.9939960000000003E5
73 72 -4.0140060000000003E5
73 73 8.008002000000001E5
73 74 -3.9939960000000003E5
74 73 -4.0140060000000003E5
74 74 8.008002000000001E5
74 75 -3.9939960000000003E5
75 74 -4.0140060000000003E5
75 75 8.008002000000001E5
75 76 -3.9939960000000003E5
76 75 -4.0140060000000003E5
76 76 8.008002000000001E5
76 77 -3.9939960000000003E5
77 76 -4.0140060000000003E5
77 77 8.008002000000001E5
77 78 -3.9939960000000003E5
78 77 -4.0140060000000003E5
78 78 8.008002000000001E5
78 79 -3.9939960000000003E5
79 78 -4.0140060000000003E5
79 79 8.008002000000001E5
79 80 -3.9939960000000003E5
80 79 -4.0140060000000003E5
80 80 8.008002000000001E5
80 81 -3.9939960000000003E5
81 80 -4.0140060000000003E5
81 81 8.008002000000001E5
81 82 -3.9939960000000003E5
82 81 -4.0140060000000003E5
82 82 8.008002000000001E5
82 83 -3.9939960000000003E5
83 82 -4.0140060000000003E5
83 83 8.008002000000001E5
83 84 -3.9939960000000003E5
84 83 -4.0140060000000003E5
84 84 8.008002000000001E5
84 85 -3.9939960000000003E5
85 84 -4.0140060000000003E5
85 85 8.008002000000001E5
85 86 -3.9939960000000003E5
86 85 -4.0140060000000003E5
86 86 8.008002000000001E5
86 87 -3.9939960000000003E5
87 86 -4.0140060000000003E5
87 87 8.008002000000001E5
87 88 -3.9939960000000003E5
88 87 -4.0140060000000003E5
88 88 8.008002000000001E5
88 89 -3.9939960000000003E5
89 88 -4.0140060000000003E5
89 89 8.008002000000001E5
89 90 -3.9939960000000003E5
90 89 -4.0140060000000003E5
90 90 8.008002000000001E5
90 91 -3.9939960000000003E5
91 90 -4.0140060000000003E5
91 91 8.008002000000001E5
91 92 -3.9939960000000003E5
92 91 -4.0140060000000003E5
92 92 8.008002000000001E5
92 93 -3.9939960000000003E5
93 92 -4.0140060000000003E5
93 93 8.008002000000001E5
93 94 -3.9939960000000003E5
94 93 -4.0140060000000003E5
94 94 8.008002000000001E5
94 95 -3.9939960000000003E5
95 94 -4.0140060000000003E5
95 95 8.008002000000001E5
95 96 -3.9939960000000003E5
96 95 -4.0140060000000003E5
96 96 8.008002000000001E5
96 97 -3.9939960000000003E5
97 96 -4.0140060000000003E5
97 97 8.008002000000001E5
97 98 -3.9939960000000003E5
98 97 -4.0140060000000003E5
98 98 8.008002000000001E5
98 99 -3.9939960000000003E5
99 98 -4.0140060000000003E5
99 99 8.008002000000001E5
99 100 -3.9939960000000003E5
100 99 -4.0140060000000003E5
100 100 8.008002000000001E5
100 101 -3.9939960000000003E5
101 100 -4.0140060000000003E5
101 101 8.008002000000001E5
101 102 -3.9939960000000003E5
102 101 -4.0140060000000003E5
102 102 8.008002000000001E5
102 103 -3.9939960000000003E5
103 102 -4.0140060000000003E5
103 103 8.008002000000001E5
103 104 -3.9939960000000003E5
104 103 -4.0140060000000003E5
104 104 8.008002000000001E5
104 105 -3.9939960000000003E5
105 104 -4.0140060000000003E5
105 105 8.008002000000001E5
105 106 -3.9939960000000003E5
106 105 -4.0140060000000003E5
106 106 8.008002000000001E5
106 107 -3.9939960000000003E5
107 106 -4.0140060000000003E5
107 107 8.008002000000001E5
107 108 -3.9939960000000003E5
108 107 -4.0140060000000003E5
108 108 8.008002000000001E5
108 109 -3.9939960000000003E5
109 108 -4.0140060000000003E5
109 109 8.008002000000001E5
109 110 -3.9939960000000003E5
110 109 -4.0140060000000003E5
110 110 8.008002000000001E5
110 111 -3.9939960000000003E5
111 110 -4.0140060000000003E5
111 111 8.008002000000001E5
111 112 -3.9939960000000003E5
112 111 -4.0140060000000003E5
112 112 8.008002000000001E5
112 113 -3.9939960000000003E5
113 112 -4.0140060000000003E5
113 113 8.008002000000001E5
113 114 -3.9939960000000003E5
114 113 -4.0140060000000003E5
114 114 8.008002000000001E5
114 115 -3.9939960000000003E5
115 114 -4.0140060000000003E5
115 115 8.008002000000001E5
115 116 -3.9939960000000003E5
116 115 -4.0140060000000003E5
116 116 8.008002000000001E5
116 117 -3.9939960000000003E5
117 116 -4.0140060000000003E5
117 117 8.008002000000001E5
117 118 -3.9939960000000003E5
118 117 -4.0140060000000003E5
118 118 8.008002000000001E5
118 119 -3.9939960000000003E5
119 118 -4.0140060000000003E5
119 119 8.008002000000001E5
119 120 -3.9939960000000003E5
120 119 -4.0140060000000003E5
120 120 8.008002000000001E5
120 121 -3.9939960000000003E5
121 120 -4.0140060000000003E5
121 121 8.008002000000001E5
121 122 -3.9939960000000003E5
122 121 -4.0140060000000003E5
122 122 8.008002000000001E5
122 123 -3.9939960000000003E5
123 122 -4.0140060000000003E5
123 123 8.008002000000001E5
123 124 -3.9939960000000003E5
124 123 -4.0140060000000003E5
124 124 8.008002000000001E5
124 125 -3.9939960000000003E5
125 124 -4.0140060000000003E5
125 125 8.008002000000001E5
125 126 -3.9939960000000003E5
126 125 -4.0140060000000003E5
126 126 8.008002000000001E5
126 127 -3.9939960000000003E5
127 126 -4.0140060000000003E5
127 127 8.008002000000001E5
127 128 -3.9939960000000003E5
128 127 -4.0140060000000003E5
128 128 8.008002000000001E5
128 129 -3.9939960000000003E5
129 128 -4.0140060000000003E5
129 129 8.008002000000001E5
129 130 -3.9939960000000003E5
130 129 -4.0140060000000003E5
130 130 8.008002000000001E5
130 131 -3.9939960000000003E5
131 130 -4.0140060000000003E5
131 131 8.008002000000001E5
131 132 -3.9939960000000003E5
132 131 -4.0140060000000003E5
132 132 8.008002000000001E5
132 133 -3.9939960000000003E5
133 132 -4.0140060000000003E5
133 133 8.008002000000001E5
133 134 -3.9939960000000003E5
134 133 -4.0140060000000003E5
134 134 8.008002000000001E5
134 135 -3.9939960000000003E5
135 134 -4.0140060000000003E5
135 135 8.008002000000001E5
135 136 -3.9939960000000003E5
136 135 -4.0140060000000003E5
136 136 8.008002000000001E5
136 137 -3.9939960000000003E5
137 136 -4.0140060000000003E5
137 137 8.008002000000001E5
137 138 -3.9939960000000003E5
138 137 -4.0140060000000003E5
138 138 8.008002000000001E5
138 139 -3.9939960000000003E5
139 138 -4.0140060000000003E5
139 139 8.008002000000001E5
139 140 -3.9939960000000003E5
140 139 -4.0140060000000003E5
140 140 8.008002000000001E5
140 141 -3.9939960000000003E5
141 140 -4.0140060000000003E5
141 141 8.008002000000001E5
141 142 -3.9939960000000003E5
142 141 -4.0140060000000003E5
142 142 8.008002000000001E5
142 143 -3.9939960000000003E5
143 142 -4.0140060000000003E5
143 143 8.008002000000001E5
143 144 -3.9939960000000003E5
144 143 -4.0140060000000003E5
144 144 8.008002000000001E5
144 145 -3.9939960000000003E5
145 144 -4.0140060000000003E5
145 145 8.008002000000001E5
145 146 -3.9939960000000003E5
146 145 -4.0140060000000003E5
146 146 8.008002000000001E5
146 147 -3.9939960000000003E5
147 146 -4.0140060000000003E5
147 147 8.008002000000001E5
147 148 -3.9939960000000003E5
148 147 -4.0140060000000003E5
148 148 8.008002000000001E5
148 149 -3.9939960000000003E5
149 148 -4.0140060000000003E5
149 149 8.008002000000001E5
149 150 -3.9939960000000003E5
150 149 -4.0140060000000003E5
150 150 8.008002000000001E5
150 151 -3.9939960000000003E5
151 150 -4.0140060000000003E5
151 151 8.008002000000001E5
151 152 -3.9939960000000003E5
152 151 -4.0140060000000003E5
152 152 8.008002000000001E5
152 153 -3.9939960000000003E5
153 152 -4.0140060000000003E5
153 153 8.008002000000001E5
153 154 -3.9939960000000003E5
154 153 -4.0140060000000003E5
154 154 8.008002000000001E5
154 155 -3.9939960000000003E5
155 154 -4.0140060000000003E5
155 155 8.008002000000001E5
155 156 -3.9939960000000003E5
156 155 -4.0140060000000003E5
156 156 8.008002000000001E5
156 157 -3.9939960000000003E5
157 156 -4.0140060000000003E5
157 157 8.008002000000001E5
157 158 -3.9939960000000003E5
158 157 -4.0140060000000003E5
158 158 8.008002000000001E5
158 159 -3.9939960000000003E5
159 158 -4.0140060000000003E5
159 159 8.008002000000001E5
159 160 -3.9939960000000003E5
160 159 -4.0140060000000003E5
160 160 8.008002000000001E5
160 161 -3.9939960000000003E5
161 160 -4.0140060000000003E5
161 161 8.008002000000001E5
161 162 -3.9939960000000003E5
162 161 -4.0140060000000003E5
162 162 8.008002000000001E5
162 163 -3.9939960000000003E5
163 162 -4.0140060000000003E5
163 163 8.008002000000001E5
163 164 -3.9939960000000003E5
164 163 -4.0140060000000003E5
164 164 8.008002000000001E5
164 165 -3.9939960000000003E5
165 164 -4.0140060000000003E5
165 165 8.008002000000001E5
165 166 -3.9939960000000003E5
166 165 -4.0140060000000003E5
166 166 8.008002000000001E5
166 167 -3.9939960000000003E5
167 166 -4.0140060000000003E5
167 167 8.008002000000001E5
167 168 -3.9939960000000003E5
168 167 -4.0140060000000003E5
168 168 8.008002000000001E5
168 169 -3.9939960000000003E5
169 168 -4.0140060000000003E5
169 169 8.008002000000001E5
169 170 -3.9939960000000003E5
170 169 -4.0140060000000003E5
170 170 8.008002000000001E5
170 171 -3.9939960000000003E5
171 170 -4.0140060000000003E5
171 171 8.008002000000001E5
171 172 -3.9939960000000003E5
172 171 -4.0140060000000003E5
172 172 8.008002000000001E5
172 173 -3.9939960000000003E5
173 172 -4.0140060000000003E5
173 173 8.008002000000001E5
173 174 -3.9939960000000003E5
174 173 -4.0140060000000003E5
174 174 8.008002000000001E5
174 175 -3.9939960000000003E5
175 174 -4.0140060000000003E5
175 175 8.008002000000001E5
175 176 -3.9939960000000003E5
176 175 -4.0140060000000003E5
176 176 8.008002000000001E5
176 177 -3.9939960000000003E5
177 176 -4.0140060000000003E5
177 177 8.008002000000001E5
177 178 -3.9939960000000003E5
178 177 -4.0140060000000003E5
178 178 8.008002000000001E5
178 179 -3.9939960000000003E5
179 178 -4.0140060000000003E5
179 179 8.008002000000001E5
179 180 -3.9939960000000003E5
180 179 -4.0140060000000003E5
180 180 8.008002000000001E5
180 181 -3.9939960000000003E5
181 180 -4.0140060000000003E5
181 181 8.008002000000001E5
181 182 -3.9939960000000003E5
182 181 -4.0140060000000003E5
182 182 8.008002000000001E5
182 183 -3.9939960000000003E5
183 182 -4.0140060000000003E5
183 183 8.008002000000001E5
183 184 -3.9939960000000003E5
184 183 -4.0140060000000003E5
184 184 8.008002000000001E5
184 185 -3.9939960000000003E5
185 184 -4.0140060000000003E5
185 185 8.008002000000001E5
185 186 -3.9939960000000003E5
186 185 -4.0140060000000003E5
186 186 8.008002000000001E5
186 187 -3.9939960000000003E5
187 186 -4.0140060000000003E5
187 187 8.008002000000001E5
187 188 -3.9939960000000003E5
188 187 -4.0140060000000003E5
188 188 8.008002000000001E5
188 189 -3.9939960000000003E5
189 188 -4.0140060000000003E5
189 189 8.008002000000001E5
189 190 -3.9939960000000003E5
190 189 -4.0140060000000003E5
190 190 8.008002000000001E5
190 191 -3.9939960000000003E5
191 190 -4.0140060000000003E5
191 191 8.008002000000001E5
191 192 -3.9939960000000003E5
192 191 -4.0140060000000003E5
192 192 8.008002000000001E5
192 193 -3.9939960000000003E5
193 192 -4.0140060000000003E5
193 193 8.008002000000001E5
193 194 -3.9939960000000003E5
194 193 -4.0140060000000003E5
194 194 8.008002000000001E5
194 195 -3.9939960000000003E5
195 194 -4.0140060000000003E5
195 195 8.008002000000001E5
195 196 -3.9939960000000003E5
196 195 -4.0140060000000003E5
196 196 8.008002000000001E5
196 197 -3.9939960000000003E5
197 196 -4.0140060000000003E5
197 197 8.008002000000001E5
197 198 -3.9939960000000003E5
198 197 -4.0140060000000003E5
198 198 8.008002000000001E5
198 199 -3.9939960000000003E5
199 198 -4.0140060000000003E5
199 199 8.008002000000001E5
199 200 -3.9939960000000003E5
200 199 -4.0140060000000003E5
200 200 8.008002000000001E5
200 201 -3.9939960000000003E5
201 200 -4.0140060000000003E5
201 201 8.008002000000001E5
201 202 -3.9939960000000003E5
202 201 -4.0140060000000003E5
202 202 8.008002000000001E5
202 203 -3.9939960000000003E5
203 202 -4.0140060000000003E5
203 203 8.008002000000001E5
203 204 -3.9939960000000003E5
204 203 -4.0140060000000003E5
204 204 8.008002000000001E5
204 205 -3.9939960000000003E5
205 204 -4.0140060000000003E5
205 205 8.008002000000001E5
205 206 -3.9939960000000003E5
206 205 -4.0140060000000003E5
206 206 8.008002000000001E5
206 207 -3.9939960000000003E5
207 206 -4.0140060000000003E5
207 207 8.008002000000001E5
207 208 -3.9939960000000003E5
208 207 -4.0140060000000003E5
208 208 8.008002000000001E5
208 209 -3.9939960000000003E5
209 208 -4.0140060000000003E5
209 209 8.008002000000001E5
209 210 -3.9939960000000003E5
210 209 -4.0140060000000003E5
210 210 8.008002000000001E5
210 211 -3.9939960000000003E5
211 210 -4.0140060000000003E5
211 211 8.008002000000001E5
211 212 -3.9939960000000003E5
212 211 -4.0140060000000003E5
212 212 8.008002000000001E5
212 213 -3.9939960000000003E5
213 212 -4.0140060000000003E5
213 213 8.008002000000001E5
213 214 -3.9939960000000003E5
214 213 -4.0140060000000003E5
214 214 8.008002000000001E5
214 215 -3.9939960000000003E5
215 214 -4.0140060000000003E5
215 215 8.008002000000001E5
215 216 -3.9939960000000003E5
216 215 -4.0140060000000003E5
216 216 8.008002000000001E5
216 217 -3.9939960000000003E5
217 216 -4.0140060000000003E5
217 217 8.008002000000001E5
217 218 -3.9939960000000003E5
218 217 -4.0140060000000003E5
218 218 8.008002000000001E5
218 219 -3.9939960000000003E5
219 218 -4.0140060000000003E5
219 219 8.008002000000001E5
219 220 -3.9939960000000003E5
220 219 -4.0140060000000003E5
220 220 8.008002000000001E5
220 221 -3.9939960000000003E5
221 220 -4.0140060000000003E5
221 221 8.008002000000001E5
221 222 -3.9939960000000003E5
222 221 -4.0140060000000003E5
222 222 8.008002000000001E5
222 223 -3.9939960000000003E5
223 222 -4.0140060000000003E5
223 223 8.008002000000001E5
223 224 -3.9939960000000003E5
224 223 -4.0140060000000003E5
224 224 8.008002000000001E5
224 225 -3.9939960000000003E5
225 224 -4.0140060000000003E5
225 225 8.008002000000001E5
225 226 -3.9939960000000003E5
226 225 -4.0140060000000003E5
226 226 8.008002000000001E5
226 227 -3.9939960000000003E5
227 226 -4.0140060000000003E5
227 227 8.008002000000001E5
227 228 -3.9939960000000003E5
228 227 -4.0140060000000003E5
228 228 8.008002000000001E5
228 229 -3.9939960000000003E5
229 228 -4.0140060000000003E5
229 229 8.008002000000001E5
229 230 -3.9939960000000003E5
230 229 -4.0140060000000003E5
230 230 8.008002000000001E5
230 231 -3.9939960000000003E5
231 230 -4.0140060000000003E5
231 231 8.008002000000001E5
231 232 -3.9939960000000003E5
232 231 -4.0140060000000003E5
232 232 8.008002000000001E5
232 233 -3.9939960000000003E5
233 232 -4.0140060000000003E5
233 233 8.008002000000001E5
233 234 -3.9939960000000003E5
234 233 -4.0140060000000003E5
234 234 8.008002000000001E5
234 235 -3.9939960000000003E5
235 234 -4.0140060000000003E5
235 235 8.008002000000001E5
235 236 -3.9939960000000003E5
236 235 -4.0140060000000003E5
236 236 8.008002000000001E5
236 237 -3.9939960000000003E5
237 236 -4.0140060000000003E5
237 237 8.008002000000001E5
237 238 -3.9939960000000003E5
238 237 -4.0140060000000003E5
238 238 8.008002000000001E5
238 239 -3.9939960000000003E5
239 238 -4.0140060000000003E5
239 239 8.008002000000001E5
239 240 -3.9939960000000003E5
240 239 -4.0140060000000003E5
240 240 8.008002000000001E5
240 241 -3.9939960000000003E5
241 240 -4.0140060000000003E5
241 241 8.008002000000001E5
241 242 -3.9939960000000003E5
242 241 -4.0140060000000003E5
242 242 8.008002000000001E5
242 243 -3.9939960000000003E5
243 242 -4.0140060000000003E5
243 243 8.008002000000001E5
243 244 -3.9939960000000003E5
244 243 -4.0140060000000003E5
244 244 8.008002000000001E5
244 245 -3.9939960000000003E5
245 244 -4.0140060000000003E5
245 245 8.008002000000001E5
245 246 -3.9939960000000003E5
246 245 -4.0140060000000003E5
246 246 8.008002000000001E5
246 247 -3.9939960000000003E5
247 246 -4.0140060000000003E5
247 247 8.008002000000001E5
247 248 -3.9939960000000003E5
248 247 -4.0140060000000003E5
248 248 8.008002000000001E5
248 249 -3.9939960000000003E5
249 248 -4.0140060000000003E5
249 249 8.008002000000001E5
249 250 -3.9939960000000003E5
250 249 -4.0140060000000003E5
250 250 8.008002000000001E5
250 251 -3.9939960000000003E5
251 250 -4.0140060000000003E5
251 251 8.008002000000001E5
251 252 -3.9939960000000003E5
252 251 -4.0140060000000003E5
252 252 8.008002000000001E5
252 253 -3.9939960000000003E5
253 252 -4.0140060000000003E5
253 253 8.008002000000001E5
253 254 -3.9939960000000003E5
254 253 -4.0140060000000003E5
254 254 8.008002000000001E5
254 255 -3.9939960000000003E5
255 254 -4.0140060000000003E5
255 255 8.008002000000001E5
255 256 -3.9939960000000003E5
256 255 -4.0140060000000003E5
256 256 8.008002000000001E5
256 257 -3.9939960000000003E5
257 256 -4.0140060000000003E5
257 257 8.008002000000001E5
257 258 -3.9939960000000003E5
258 257 -4.0140060000000003E5
258 258 8.008002000000001E5
258 259 -3.9939960000000003E5
259 258 -4.0140060000000003E5
259 259 8.008002000000001E5
259 260 -3.9939960000000003E5
260 259 -4.0140060000000003E5
260 260 8.008002000000001E5
260 261 -3.9939960000000003E5
261 260 -4.0140060000000003E5
261 261 8.008002000000001E5
261 262 -3.9939960000000003E5
262 261 -4.0140060000000003E5
262 262 8.008002000000001E5
262 263 -3.9939960000000003E5
263 262 -4.0140060000000003E5
263 263 8.008002000000001E5
263 264 -3.9939960000000003E5
264 263 -4.0140060000000003E5
264 264 8.008002000000001E5
264 265 -3.9939960000000003E5
265 264 -4.0140060000000003E5
265 265 8.008002000000001E5
265 266 -3.9939960000000003E5
266 265 -4.0140060000000003E5
266 266 8.008002000000001E5
266 267 -3.9939960000000003E5
267 266 -4.0140060000000003E5
267 267 8.008002000000001E5
267 268 -3.9939960000000003E5
268 267 -4.0140060000000003E5
268 268 8.008002000000001E5
268 269 -3.9939960000000003E5
269 268 -4.0140060000000003E5
269 269 8.008002000000001E5
269 270 -3.9939960000000003E5
270 269 -4.0140060000000003E5
270 270 8.008002000000001E5
270 271 -3.9939960000000003E5
271 270 -4.0140060000000003E5
271 271 8.008002000000001E5
271 272 -3.9939960000000003E5
272 271 -4.0140060000000003E5
272 272 8.008002000000001E5
272 273 -3.9939960000000003E5
273 272 -4.0140060000000003E5
273 273 8.008002000000001E5
273 274 -3.9939960000000003E5
274 273 -4.0140060000000003E5
274 274 8.008002000000001E5
274 275 -3.9939960000000003E5
275 274 -4.0140060000000003E5
275 275 8.008002000000001E5
275 276 -3.9939960000000003E5
276 275 -4.0140060000000003E5
276 276 8.008002000000001E5
276 277 -3.9939960000000003E5
277 276 -4.0140060000000003E5
277 277 8.008002000000001E5
277 278 -3.9939960000000003E5
278 277 -4.0140060000000003E5
278 278 8.008002000000001E5
278 279 -3.9939960000000003E5
279 278 -4.0140060000000003E5
279 279 8.008002000000001E5
279 280 -3.9939960000000003E5
280 279 -4.0140060000000003E5
280 280 8.008002000000001E5
280 281 -3.9939960000000003E5
281 280 -4.0140060000000003E5
281 281 8.008002000000001E5
281 282 -3.9939960000000003E5
282 281 -4.0140060000000003E5
282 282 8.008002000000001E5
282 283 -3.9939960000000003E5
283 282 -4.0140060000000003E5
283 283 8.008002000000001E5
283 284 -3.9939960000000003E5
284 283 -4.0140060000000003E5
284 284 8.008002000000001E5
284 285 -3.9939960000000003E5
285 284 -4.0140060000000003E5
285 285 8.008002000000001E5
285 286 -3.9939960000000003E5
286 285 -4.0140060000000003E5
286 286 8.008002000000001E5
286 287 -3.9939960000000003E5
287 286 -4.0140060000000003E5
287 287 8.008002000000001E5
287 288 -3.9939960000000003E5
288 287 -4.0140060000000003E5
288 288 8.008002000000001E5
288 289 -3.9939960000000003E5
289 288 -4.0140060000000003E5
289 289 8.008002000000001E5
289 290 -3.9939960000000003E5
290 289 -4.0140060000000003E5
290 290 8.008002000000001E5
290 291 -3.9939960000000003E5
291 290 -4.0140060000000003E5
291 291 8.008002000000001E5
291 292 -3.9939960000000003E5
292 291 -4.0140060000000003E5
292 292 8.008002000000001E5
292 293 -3.9939960000000003E5
293 292 -4.0140060000000003E5
293 293 8.008002000000001E5
293 294 -3.9939960000000003E5
294 293 -4.0140060000000003E5
294 294 8.008002000000001E5
294 295 -3.9939960000000003E5
295 294 -4.0140060000000003E5
295 295 8.008002000000001E5
295 296 -3.9939960000000003E5
296 295 -4.0140060000000003E5
296 296 8.008002000000001E5
296 297 -3.9939960000000003E5
297 296 -4.0140060000000003E5
297 297 8.008002000000001E5
297 298 -3.9939960000000003E5
298 297 -4.0140060000000003E5
298 298 8.008002000000001E5
298 299 -3.9939960000000003E5
299 298 -4.0140060000000003E5
299 299 8.008002000000001E5
299 300 -3.9939960000000003E5
300 299 -4.0140060000000003E5
300 300 8.008002000000001E5
300 301 -3.9939960000000003E5
301 300 -4.0140060000000003E5
301 301 8.008002000000001E5
301 302 -3.9939960000000003E5
302 301 -4.0140060000000003E5
302 302 8.008002000000001E5
302 303 -3.9939960000000003E5
303 302 -4.0140060000000003E5
303 303 8.008002000000001E5
303 304 -3.9939960000000003E5
304 303 -4.0140060000000003E5
304 304 8.008002000000001E5
304 305 -3.9939960000000003E5
305 304 -4.0140060000000003E5
305 305 8.008002000000001E5
305 306 -3.9939960000000003E5
306 305 -4.0140060000000003E5
306 306 8.008002000000001E5
306 307 -3.9939960000000003E5
307 306 -4.0140060000000003E5
307 307 8.008002000000001E5
307 308 -3.9939960000000003E5
308 307 -4.0140060000000003E5
308 308 8.008002000000001E5
308 309 -3.9939960000000003E5
309 308 -4.0140060000000003E5
309 309 8.008002000000001E5
309 310 -3.9939960000000003E5
310 309 -4.0140060000000003E5
310 310 8.008002000000001E5
310 311 -3.9939960000000003E5
311 310 -4.0140060000000003E5
311 311 8.008002000000001E5
311 312 -3.9939960000000003E5
312 311 -4.0140060000000003E5
312 312 8.008002000000001E5
312 313 -3.9939960000000003E5
313 312 -4.0140060000000003E5
313 313 8.008002000000001E5
313 314 -3.9939960000000003E5
314 313 -4.0140060000000003E5
314 314 8.008002000000001E5
314 315 -3.9939960000000003E5
315 314 -4.0140060000000003E5
315 315 8.008002000000001E5
315 316 -3.9939960000000003E5
316 315 -4.0140060000000003E5
316 316 8.008002000000001E5
316 317 -3.9939960000000003E5
317 316 -4.0140060000000003E5
317 317 8.008002000000001E5
317 318 -3.9939960000000003E5
318 317 -4.0140060000000003E5
318 318 8.008002000000001E5
318 319 -3.9939960000000003E5
319 318 -4.0140060000000003E5
319 319 8.008002000000001E5
319 320 -3.9939960000000003E5
320 319 -4.0140060000000003E5
320 320 8.008002000000001E5
320 321 -3.9939960000000003E5
321 320 -4.0140060000000003E5
321 321 8.008002000000001E5
321 322 -3.9939960000000003E5
322 321 -4.0140060000000003E5
322 322 8.008002000000001E5
322 323 -3.9939960000000003E5
323 322 -4.0140060000000003E5
323 323 8.008002000000001E5
323 324 -3.9939960000000003E5
324 323 -4.0140060000000003E5
324 324 8.008002000000001E5
324 325 -3.9939960000000003E5
325 324 -4.0140060000000003E5
325 325 8.008002000000001E5
325 326 -3.9939960000000003E5
326 325 -4.0140060000000003E5
326 326 8.008002000000001E5
326 327 -3.9939960000000003E5
327 326 -4.0140060000000003E5
327 327 8.008002000000001E5
327 328 -3.9939960000000003E5
328 327 -4.0140060000000003E5
328 328 8.008002000000001E5
328 329 -3.9939960000000003E5
329 328 -4.0140060000000003E5
329 329 8.008002000000001E5
329 330 -3.9939960000000003E5
330 329 -4.0140060000000003E5
330 330 8.008002000000001E5
330 331 -3.9939960000000003E5
331 330 -4.0140060000000003E5
331 331 8.008002000000001E5
331 332 -3.9939960000000003E5
332 331 -4.0140060000000003E5
332 332 8.008002000000001E5
332 333 -3.9939960000000003E5
333 332 -4.0140060000000003E5
333 333 8.008002000000001E5
333 334 -3.9939960000000003E5
334 333 -4.0140060000000003E5
334 334 8.008002000000001E5
334 335 -3.9939960000000003E5
335 334 -4.0140060000000003E5
335 335 8.008002000000001E5
335 336 -3.9939960000000003E5
336 335 -4.0140060000000003E5
336 336 8.008002000000001E5
336 337 -3.9939960000000003E5
337 336 -4.0140060000000003E5
337 337 8.008002000000001E5
337 338 -3.9939960000000003E5
338 337 -4.0140060000000003E5
338 338 8.008002000000001E5
338 339 -3.9939960000000003E5
339 338 -4.0140060000000003E5
339 339 8.008002000000001E5
339 340 -3.9939960000000003E5
340 339 -4.0140060000000003E5
340 340 8.008002000000001E5
340 341 -3.9939960000000003E5
341 340 -4.0140060000000003E5
341 341 8.008002000000001E5
341 342 -3.9939960000000003E5
342 341 -4.0140060000000003E5
342 342 8.008002000000001E5
342 343 -3.9939960000000003E5
343 342 -4.0140060000000003E5
343 343 8.008002000000001E5
343 344 -3.9939960000000003E5
344 343 -4.0140060000000003E5
344 344 8.008002000000001E5
344 345 -3.9939960000000003E5
345 344 -4.0140060000000003E5
345 345 8.008002000000001E5
345 346 -3.9939960000000003E5
346 345 -4.0140060000000003E5
346 346 8.008002000000001E5
346 347 -3.9939960000000003E5
347 346 -4.0140060000000003E5
347 347 8.008002000000001E5
347 348 -3.9939960000000003E5
348 347 -4.0140060000000003E5
348 348 8.008002000000001E5
348 349 -3.9939960000000003E5
349 348 -4.0140060000000003E5
349 349 8.008002000000001E5
349 350 -3.9939960000000003E5
350 349 -4.0140060000000003E5
350 350 8.008002000000001E5
350 351 -3.9939960000000003E5
351 350 -4.0140060000000003E5
351 351 8.008002000000001E5
351 352 -3.9939960000000003E5
352 351 -4.0140060000000003E5
352 352 8.008002000000001E5
352 353 -3.9939960000000003E5
353 352 -4.0140060000000003E5
353 353 8.008002000000001E5
353 354 -3.9939960000000003E5
354 353 -4.0140060000000003E5
354 354 8.008002000000001E5
354 355 -3.9939960000000003E5
355 354 -4.0140060000000003E5
355 355 8.008002000000001E5
355 356 -3.9939960000000003E5
356 355 -4.0140060000000003E5
356 356 8.008002000000001E5
356 357 -3.9939960000000003E5
357 356 -4.0140060000000003E5
357 357 8.008002000000001E5
357 358 -3.9939960000000003E5
358 357 -4.0140060000000003E5
358 358 8.008002000000001E5
358 359 -3.9939960000000003E5
359 358 -4.0140060000000003E5
359 359 8.008002000000001E5
359 360 -3.9939960000000003E5
360 359 -4.0140060000000003E5
360 360 8.008002000000001E5
360 361 -3.9939960000000003E5
361 360 -4.0140060000000003E5
361 361 8.008002000000001E5
361 362 -3.9939960000000003E5
362 361 -4.0140060000000003E5
362 362 8.008002000000001E5
362 363 -3.9939960000000003E5
363 362 -4.0140060000000003E5
363 363 8.008002000000001E5
363 364 -3.9939960000000003E5
364 363 -4.0140060000000003E5
364 364 8.008002000000001E5
364 365 -3.9939960000000003E5
365 364 -4.0140060000000003E5
365 365 8.008002000000001E5
365 366 -3.9939960000000003E5
366 365 -4.0140060000000003E5
366 366 8.008002000000001E5
366 367 -3.9939960000000003E5
367 366 -4.0140060000000003E5
367 367 8.008002000000001E5
367 368 -3.9939960000000003E5
368 367 -4.0140060000000003E5
368 368 8.008002000000001E5
368 369 -3.9939960000000003E5
369 368 -4.0140060000000003E5
369 369 8.008002000000001E5
369 370 -3.9939960000000003E5
370 369 -4.0140060000000003E5
370 370 8.008002000000001E5
370 371 -3.9939960000000003E5
371 370 -4.0140060000000003E5
371 371 8.008002000000001E5
371 372 -3.9939960000000003E5
372 371 -4.0140060000000003E5
372 372 8.008002000000001E5
372 373 -3.9939960000000003E5
373 372 -4.0140060000000003E5
373 373 8.008002000000001E5
373 374 -3.9939960000000003E5
374 373 -4.0140060000000003E5
374 374 8.008002000000001E5
374 375 -3.9939960000000003E5
375 374 -4.0140060000000003E5
375 375 8.008002000000001E5
375 376 -3.9939960000000003E5
376 375 -4.0140060000000003E5
376 376 8.008002000000001E5
376 377 -3.9939960000000003E5
377 376 -4.0140060000000003E5
377 377 8.008002000000001E5
377 378 -3.9939960000000003E5
378 377 -4.0140060000000003E5
378 378 8.008002000000001E5
378 379 -3.9939960000000003E5
379 378 -4.0140060000000003E5
379 379 8.008002000000001E5
379 380 -3.9939960000000003E5
380 379 -4.0140060000000003E5
380 380 8.008002000000001E5
380 381 -3.9939960000000003E5
381 380 -4.0140060000000003E5
381 381 8.008002000000001E5
381 382 -3.9939960000000003E5
382 381 -4.0140060000000003E5
382 382 8.008002000000001E5
382 383 -3.9939960000000003E5
383 382 -4.0140060000000003E5
383 383 8.008002000000001E5
383 384 -3.9939960000000003E5
384 383 -4.0140060000000003E5
384 384 8.008002000000001E5
384 385 -3.9939960000000003E5
385 384 -4.0140060000000003E5
385 385 8.008002000000001E5
385 386 -3.9939960000000003E5
386 385 -4.0140060000000003E5
386 386 8.008002000000001E5
386 387 -3.9939960000000003E5
387 386 -4.0140060000000003E5
387 387 8.008002000000001E5
387 388 -3.9939960000000003E5
388 387 -4.0140060000000003E5
388 388 8.008002000000001E5
388 389 -3.9939960000000003E5
389 388 -4.0140060000000003E5
389 389 8.008002000000001E5
389 390 -3.9939960000000003E5
390 389 -4.0140060000000003E5
390 390 8.008002000000001E5
390 391 -3.9939960000000003E5
391 390 -4.0140060000000003E5
391 391 8.008002000000001E5
391 392 -3.9939960000000003E5
392 391 -4.0140060000000003E5
392 392 8.008002000000001E5
392 393 -3.9939960000000003E5
393 392 -4.0140060000000003E5
393 393 8.008002000000001E5
393 394 -3.9939960000000003E5
394 393 -4.0140060000000003E5
394 394 8.008002000000001E5
394 395 -3.9939960000000003E5
395 394 -4.0140060000000003E5
395 395 8.008002000000001E5
395 396 -3.9939960000000003E5
396 395 -4.0140060000000003E5
396 396 8.008002000000001E5
396 397 -3.9939960000000003E5
397 396 -4.0140060000000003E5
397 397 8.008002000000001E5
397 398 -3.9939960000000003E5
398 397 -4.0140060000000003E5
398 398 8.008002000000001E5
398 399 -3.9939960000000003E5
399 398 -4.0140060000000003E5
399 399 8.008002000000001E5
399 400 -3.9939960000000003E5
400 399 -4.0140060000000003E5
400 400 8.008002000000001E5
400 401 -3.9939960000000003E5
401 400 -4.0140060000000003E5
401 401 8.008002000000001E5
401 402 -3.9939960000000003E5
402 401 -4.0140060000000003E5
402 402 8.008002000000001E5
402 403 -3.9939960000000003E5
403 402 -4.0140060000000003E5
403 403 8.008002000000001E5
403 404 -3.9939960000000003E5
404 403 -4.0140060000000003E5
404 404 8.008002000000001E5
404 405 -3.9939960000000003E5
405 404 -4.0140060000000003E5
405 405 8.008002000000001E5
405 406 -3.9939960000000003E5
406 405 -4.0140060000000003E5
406 406 8.008002000000001E5
406 407 -3.9939960000000003E5
407 406 -4.0140060000000003E5
407 407 8.008002000000001E5
407 408 -3.9939960000000003E5
408 407 -4.0140060000000003E5
408 408 8.008002000000001E5
408 409 -3.9939960000000003E5
409 408 -4.0140060000000003E5
409 409 8.008002000000001E5
409 410 -3.9939960000000003E5
410 409 -4.0140060000000003E5
410 410 8.008002000000001E5
410 411 -3.9939960000000003E5
411 410 -4.0140060000000003E5
411 411 8.008002000000001E5
411 412 -3.9939960000000003E5
412 411 -4.0140060000000003E5
412 412 8.008002000000001E5
412 413 -3.9939960000000003E5
413 412 -4.0140060000000003E5
413 413 8.008002000000001E5
413 414 -3.9939960000000003E5
414 413 -4.0140060000000003E5
414 414 8.008002000000001E5
414 415 -3.9939960000000003E5
415 414 -4.0140060000000003E5
415 415 8.008002000000001E5
415 416 -3.9939960000000003E5
416 415 -4.0140060000000003E5
416 416 8.008002000000001E5
416 417 -3.9939960000000003E5
417 416 -4.0140060000000003E5
417 417 8.008002000000001E5
417 418 -3.9939960000000003E5
418 417 -4.0140060000000003E5
418 418 8.008002000000001E5
418 419 -3.9939960000000003E5
419 418 -4.0140060000000003E5
419 419 8.008002000000001E5
419 420 -3.9939960000000003E5
420 419 -4.0140060000000003E5
420 420 8.008002000000001E5
420 421 -3.9939960000000003E5
421 420 -4.0140060000000003E5
421 421 8.008002000000001E5
421 422 -3.9939960000000003E5
422 421 -4.0140060000000003E5
422 422 8.008002000000001E5
422 423 -3.9939960000000003E5
423 422 -4.0140060000000003E5
423 423 8.008002000000001E5
423 424 -3.9939960000000003E5
424 423 -4.0140060000000003E5
424 424 8.008002000000001E5
424 425 -3.9939960000000003E5
425 424 -4.0140060000000003E5
425 425 8.008002000000001E5
425 426 -3.9939960000000003E5
426 425 -4.0140060000000003E5
426 426 8.008002000000001E5
426 427 -3.9939960000000003E5
427 426 -4.0140060000000003E5
427 427 8.008002000000001E5
427 428 -3.9939960000000003E5
428 427 -4.0140060000000003E5
428 428 8.008002000000001E5
428 429 -3.9939960000000003E5
429 428 -4.0140060000000003E5
429 429 8.008002000000001E5
429 430 -3.9939960000000003E5
430 429 -4.0140060000000003E5
430 430 8.008002000000001E5
430 431 -3.9939960000000003E5
431 430 -4.0140060000000003E5
431 431 8.008002000000001E5
431 432 -3.9939960000000003E5
432 431 -4.0140060000000003E5
432 432 8.008002000000001E5
432 433 -3.9939960000000003E5
433 432 -4.0140060000000003E5
433 433 8.008002000000001E5
433 434 -3.9939960000000003E5
434 433 -4.0140060000000003E5
434 434 8.008002000000001E5
434 435 -3.9939960000000003E5
435 434 -4.0140060000000003E5
435 435 8.008002000000001E5
435 436 -3.9939960000000003E5
436 435 -4.0140060000000003E5
436 436 8.008002000000001E5
436 437 -3.9939960000000003E5
437 436 -4.0140060000000003E5
437 437 8.008002000000001E5
437 438 -3.9939960000000003E5
438 437 -4.0140060000000003E5
438 438 8.008002000000001E5
438 439 -3.9939960000000003E5
439 438 -4.0140060000000003E5
439 439 8.008002000000001E5
439 440 -3.9939960000000003E5
440 439 -4.0140060000000003E5
440 440 8.008002000000001E5
440 441 -3.9939960000000003E5
441 440 -4.0140060000000003E5
441 441 8.008002000000001E5
441 442 -3.9939960000000003E5
442 441 -4.0140060000000003E5
442 442 8.008002000000001E5
442 443 -3.9939960000000003E5
443 442 -4.0140060000000003E5
443 443 8.008002000000001E5
443 444 -3.9939960000000003E5
444 443 -4.0140060000000003E5
444 444 8.008002000000001E5
444 445 -3.9939960000000003E5
445 444 -4.0140060000000003E5
445 445 8.008002000000001E5
445 446 -3.9939960000000003E5
446 445 -4.0140060000000003E5
446 446 8.008002000000001E5
446 447 -3.9939960000000003E5
447 446 -4.0140060000000003E5
447 447 8.008002000000001E5
447 448 -3.9939960000000003E5
448 447 -4.0140060000000003E5
448 448 8.008002000000001E5
448 449 -3.9939960000000003E5
449 448 -4.0140060000000003E5
449 449 8.008002000000001E5
449 450 -3.9939960000000003E5
450 449 -4.0140060000000003E5
450 450 8.008002000000001E5
450 451 -3.9939960000000003E5
451 450 -4.0140060000000003E5
451 451 8.008002000000001E5
451 452 -3.9939960000000003E5
452 451 -4.0140060000000003E5
452 452 8.008002000000001E5
452 453 -3.9939960000000003E5
453 452 -4.0140060000000003E5
453 453 8.008002000000001E5
453 454 -3.9939960000000003E5
454 453 -4.0140060000000003E5
454 454 8.008002000000001E5
454 455 -3.9939960000000003E5
455 454 -4.0140060000000003E5
455 455 8.008002000000001E5
455 456 -3.9939960000000003E5
456 455 -4.0140060000000003E5
456 456 8.008002000000001E5
456 457 -3.9939960000000003E5
457 456 -4.0140060000000003E5
457 457 8.008002000000001E5
457 458 -3.9939960000000003E5
458 457 -4.0140060000000003E5
458 458 8.008002000000001E5
458 459 -3.9939960000000003E5
459 458 -4.0140060000000003E5
459 459 8.008002000000001E5
459 460 -3.9939960000000003E5
460 459 -4.0140060000000003E5
460 460 8.008002000000001E5
460 461 -3.9939960000000003E5
461 460 -4.0140060000000003E5
461 461 8.008002000000001E5
461 462 -3.9939960000000003E5
462 461 -4.0140060000000003E5
462 462 8.008002000000001E5
462 463 -3.9939960000000003E5
463 462 -4.0140060000000003E5
463 463 8.008002000000001E5
463 464 -3.9939960000000003E5
464 463 -4.0140060000000003E5
464 464 8.008002000000001E5
464 465 -3.9939960000000003E5
465 464 -4.0140060000000003E5
465 465 8.008002000000001E5
465 466 -3.9939960000000003E5
466 465 -4.0140060000000003E5
466 466 8.008002000000001E5
466 467 -3.9939960000000003E5
467 466 -4.0140060000000003E5
467 467 8.008002000000001E5
467 468 -3.9939960000000003E5
468 467 -4.0140060000000003E5
468 468 8.008002000000001E5
468 469 -3.9939960000000003E5
469 468 -4.0140060000000003E5
469 469 8.008002000000001E5
469 470 -3.9939960000000003E5
470 469 -4.0140060000000003E5
470 470 8.008002000000001E5
470 471 -3.9939960000000003E5
471 470 -4.0140060000000003E5
471 471 8.008002000000001E5
471 472 -3.9939960000000003E5
472 471 -4.0140060000000003E5
472 472 8.008002000000001E5
472 473 -3.9939960000000003E5
473 472 -4.0140060000000003E5
473 473 8.008002000000001E5
473 474 -3.9939960000000003E5
474 473 -4.0140060000000003E5
474 474 8.008002000000001E5
474 475 -3.9939960000000003E5
475 474 -4.0140060000000003E5
475 475 8.008002000000001E5
475 476 -3.9939960000000003E5
476 475 -4.0140060000000003E5
476 476 8.008002000000001E5
476 477 -3.9939960000000003E5
477 476 -4.0140060000000003E5
477 477 8.008002000000001E5
477 478 -3.9939960000000003E5
478 477 -4.0140060000000003E5
478 478 8.008002000000001E5
478 479 -3.9939960000000003E5
479 478 -4.0140060000000003E5
479 479 8.008002000000001E5
479 480 -3.9939960000000003E5
480 479 -4.0140060000000003E5
480 480 8.008002000000001E5
480 481 -3.9939960000000003E5
481 480 -4.0140060000000003E5
481 481 8.008002000000001E5
481 482 -3.9939960000000003E5
482 481 -4.0140060000000003E5
482 482 8.008002000000001E5
482 483 -3.9939960000000003E5
483 482 -4.0140060000000003E5
483 483 8.008002000000001E5
483 484 -3.9939960000000003E5
484 483 -4.0140060000000003E5
484 484 8.008002000000001E5
484 485 -3.9939960000000003E5
485 484 -4.0140060000000003E5
485 485 8.008002000000001E5
485 486 -3.9939960000000003E5
486 485 -4.0140060000000003E5
486 486 8.008002000000001E5
486 487 -3.9939960000000003E5
487 486 -4.0140060000000003E5
487 487 8.008002000000001E5
487 488 -3.9939960000000003E5
488 487 -4.0140060000000003E5
488 488 8.008002000000001E5
488 489 -3.9939960000000003E5
489 488 -4.0140060000000003E5
489 489 8.008002000000001E5
489 490 -3.9939960000000003E5
490 489 -4.0140060000000003E5
490 490 8.008002000000001E5
490 491 -3.9939960000000003E5
491 490 -4.0140060000000003E5
491 491 8.008002000000001E5
491 492 -3.9939960000000003E5
492 491 -4.0140060000000003E5
492 492 8.008002000000001E5
492 493 -3.9939960000000003E5
493 492 -4.0140060000000003E5
493 493 8.008002000000001E5
493 494 -3.9939960000000003E5
494 493 -4.0140060000000003E5
494 494 8.008002000000001E5
494 495 -3.9939960000000003E5
495 494 -4.0140060000000003E5
495 495 8.008002000000001E5
495 496 -3.9939960000000003E5
496 495 -4.0140060000000003E5
496 496 8.008002000000001E5
496 497 -3.9939960000000003E5
497 496 -4.0140060000000003E5
497 497 8.008002000000001E5
497 498 -3.9939960000000003E5
498 497 -4.0140060000000003E5
498 498 8.008002000000001E5
498 499 -3.9939960000000003E5
499 498 -4.0140060000000003E5
499 499 8.008002000000001E5
499 500 -3.9939960000000003E5
500 499 -4.0140060000000003E5
500 500 8.008002000000001E5
500 501 -3.9939960000000003E5
501 500 -4.0140060000000003E5
501 501 8.008002000000001E5
501 502 -3.9939960000000003E5
502 501 -4.0140060000000003E5
502 502 8.008002000000001E5
502 503 -3.9939960000000003E5
503 502 -4.0140060000000003E5
503 503 8.008002000000001E5
503 504 -3.9939960000000003E5
504 503 -4.0140060000000003E5
504 504 8.008002000000001E5
504 505 -3.9939960000000003E5
505 504 -4.0140060000000003E5
505 505 8.008002000000001E5
505 506 -3.9939960000000003E5
506 505 -4.0140060000000003E5
506 506 8.008002000000001E5
506 507 -3.9939960000000003E5
507 506 -4.0140060000000003E5
507 507 8.008002000000001E5
507 508 -3.9939960000000003E5
508 507 -4.0140060000000003E5
508 508 8.008002000000001E5
508 509 -3.9939960000000003E5
509 508 -4.0140060000000003E5
509 509 8.008002000000001E5
509 510 -3.9939960000000003E5
510 509 -4.0140060000000003E5
510 510 8.008002000000001E5
510 511 -3.9939960000000003E5
511 510 -4.0140060000000003E5
511 511 8.008002000000001E5
511 512 -3.9939960000000003E5
512 511 -4.0140060000000003E5
512 512 8.008002000000001E5
512 513 -3.9939960000000003E5
513 512 -4.0140060000000003E5
513 513 8.008002000000001E5
513 514 -3.9939960000000003E5
514 513 -4.0140060000000003E5
514 514 8.008002000000001E5
514 515 -3.9939960000000003E5
515 514 -4.0140060000000003E5
515 515 8.008002000000001E5
515 516 -3.9939960000000003E5
516 515 -4.0140060000000003E5
516 516 8.008002000000001E5
516 517 -3.9939960000000003E5
517 516 -4.0140060000000003E5
517 517 8.008002000000001E5
517 518 -3.9939960000000003E5
518 517 -4.0140060000000003E5
518 518 8.008002000000001E5
518 519 -3.9939960000000003E5
519 518 -4.0140060000000003E5
519 519 8.008002000000001E5
519 520 -3.9939960000000003E5
520 519 -4.0140060000000003E5
520 520 8.008002000000001E5
520 521 -3.9939960000000003E5
521 520 -4.0140060000000003E5
521 521 8.008002000000001E5
521 522 -3.9939960000000003E5
522 521 -4.0140060000000003E5
522 522 8.008002000000001E5
522 523 -3.9939960000000003E5
523 522 -4.0140060000000003E5
523 523 8.008002000000001E5
523 524 -3.9939960000000003E5
524 523 -4.0140060000000003E5
524 524 8.008002000000001E5
524 525 -3.9939960000000003E5
525 524 -4.0140060000000003E5
525 525 8.008002000000001E5
525 526 -3.9939960000000003E5
526 525 -4.0140060000000003E5
526 526 8.008002000000001E5
526 527 -3.9939960000000003E5
527 526 -4.0140060000000003E5
527 527 8.008002000000001E5
527 528 -3.9939960000000003E5
528 527 -4.0140060000000003E5
528 528 8.008002000000001E5
528 529 -3.9939960000000003E5
529 528 -4.0140060000000003E5
529 529 8.008002000000001E5
529 530 -3.9939960000000003E5
530 529 -4.0140060000000003E5
530 530 8.008002000000001E5
530 531 -3.9939960000000003E5
531 530 -4.0140060000000003E5
531 531 8.008002000000001E5
531 532 -3.9939960000000003E5
532 531 -4.0140060000000003E5
532 532 8.008002000000001E5
532 533 -3.9939960000000003E5
533 532 -4.0140060000000003E5
533 533 8.008002000000001E5
533 534 -3.9939960000000003E5
534 533 -4.0140060000000003E5
534 534 8.008002000000001E5
534 535 -3.9939960000000003E5
535 534 -4.0140060000000003E5
535 535 8.008002000000001E5
535 536 -3.9939960000000003E5
536 535 -4.0140060000000003E5
536 536 8.008002000000001E5
536 537 -3.9939960000000003E5
537 536 -4.0140060000000003E5
537 537 8.008002000000001E5
537 538 -3.9939960000000003E5
538 537 -4.0140060000000003E5
538 538 8.008002000000001E5
538 539 -3.9939960000000003E5
539 538 -4.0140060000000003E5
539 539 8.008002000000001E5
539 540 -3.9939960000000003E5
540 539 -4.0140060000000003E5
540 540 8.008002000000001E5
540 541 -3.9939960000000003E5
541 540 -4.0140060000000003E5
541 541 8.008002000000001E5
541 542 -3.9939960000000003E5
542 541 -4.0140060000000003E5
542 542 8.008002000000001E5
542 543 -3.9939960000000003E5
543 542 -4.0140060000000003E5
543 543 8.008002000000001E5
543 544 -3.9939960000000003E5
544 543 -4.0140060000000003E5
544 544 8.008002000000001E5
544 545 -3.9939960000000003E5
545 544 -4.0140060000000003E5
545 545 8.008002000000001E5
545 546 -3.9939960000000003E5
546 545 -4.0140060000000003E5
546 546 8.008002000000001E5
546 547 -3.9939960000000003E5
547 546 -4.0140060000000003E5
547 547 8.008002000000001E5
547 548 -3.9939960000000003E5
548 547 -4.0140060000000003E5
548 548 8.008002000000001E5
548 549 -3.9939960000000003E5
549 548 -4.0140060000000003E5
549 549 8.008002000000001E5
549 550 -3.9939960000000003E5
550 549 -4.0140060000000003E5
550 550 8.008002000000001E5
550 551 -3.9939960000000003E5
551 550 -4.0140060000000003E5
551 551 8.008002000000001E5
551 552 -3.9939960000000003E5
552 551 -4.0140060000000003E5
552 552 8.008002000000001E5
552 553 -3.9939960000000003E5
553 552 -4.0140060000000003E5
553 553 8.008002000000001E5
553 554 -3.9939960000000003E5
554 553 -4.0140060000000003E5
554 554 8.008002000000001E5
554 555 -3.9939960000000003E5
555 554 -4.0140060000000003E5
555 555 8.008002000000001E5
555 556 -3.9939960000000003E5
556 555 -4.0140060000000003E5
556 556 8.008002000000001E5
556 557 -3.9939960000000003E5
557 556 -4.0140060000000003E5
557 557 8.008002000000001E5
557 558 -3.9939960000000003E5
558 557 -4.0140060000000003E5
558 558 8.008002000000001E5
558 559 -3.9939960000000003E5
559 558 -4.0140060000000003E5
559 559 8.008002000000001E5
559 560 -3.9939960000000003E5
560 559 -4.0140060000000003E5
560 560 8.008002000000001E5
560 561 -3.9939960000000003E5
561 560 -4.0140060000000003E5
561 561 8.008002000000001E5
561 562 -3.9939960000000003E5
562 561 -4.0140060000000003E5
562 562 8.008002000000001E5
562 563 -3.9939960000000003E5
563 562 -4.0140060000000003E5
563 563 8.008002000000001E5
563 564 -3.9939960000000003E5
564 563 -4.0140060000000003E5
564 564 8.008002000000001E5
564 565 -3.9939960000000003E5
565 564 -4.0140060000000003E5
565 565 8.008002000000001E5
565 566 -3.9939960000000003E5
566 565 -4.0140060000000003E5
566 566 8.008002000000001E5
566 567 -3.9939960000000003E5
567 566 -4.0140060000000003E5
567 567 8.008002000000001E5
567 568 -3.9939960000000003E5
568 567 -4.0140060000000003E5
568 568 8.008002000000001E5
568 569 -3.9939960000000003E5
569 568 -4.0140060000000003E5
569 569 8.008002000000001E5
569 570 -3.9939960000000003E5
570 569 -4.0140060000000003E5
570 570 8.008002000000001E5
570 571 -3.9939960000000003E5
571 570 -4.0140060000000003E5
571 571 8.008002000000001E5
571 572 -3.9939960000000003E5
572 571 -4.0140060000000003E5
572 572 8.008002000000001E5
572 573 -3.9939960000000003E5
573 572 -4.0140060000000003E5
573 573 8.008002000000001E5
573 574 -3.9939960000000003E5
574 573 -4.0140060000000003E5
574 574 8.008002000000001E5
574 575 -3.9939960000000003E5
575 574 -4.0140060000000003E5
575 575 8.008002000000001E5
575 576 -3.9939960000000003E5
576 575 -4.0140060000000003E5
576 576 8.008002000000001E5
576 577 -3.9939960000000003E5
577 576 -4.0140060000000003E5
577 577 8.008002000000001E5
577 578 -3.9939960000000003E5
578 577 -4.0140060000000003E5
578 578 8.008002000000001E5
578 579 -3.9939960000000003E5
579 578 -4.0140060000000003E5
579 579 8.008002000000001E5
579 580 -3.9939960000000003E5
580 579 -4.0140060000000003E5
580 580 8.008002000000001E5
580 581 -3.9939960000000003E5
581 580 -4.0140060000000003E5
581 581 8.008002000000001E5
581 582 -3.9939960000000003E5
582 581 -4.0140060000000003E5
582 582 8.008002000000001E5
582 583 -3.9939960000000003E5
583 582 -4.0140060000000003E5
583 583 8.008002000000001E5
583 584 -3.9939960000000003E5
584 583 -4.0140060000000003E5
584 584 8.008002000000001E5
584 585 -3.9939960000000003E5
585 584 -4.0140060000000003E5
585 585 8.008002000000001E5
585 586 -3.9939960000000003E5
586 585 -4.0140060000000003E5
586 586 8.008002000000001E5
586 587 -3.9939960000000003E5
587 586 -4.0140060000000003E5
587 587 8.008002000000001E5
587 588 -3.9939960000000003E5
588 587 -4.0140060000000003E5
588 588 8.008002000000001E5
588 589 -3.9939960000000003E5
589 588 -4.0140060000000003E5
589 589 8.008002000000001E5
589 590 -3.9939960000000003E5
590 589 -4.0140060000000003E5
590 590 8.008002000000001E5
590 591 -3.9939960000000003E5
591 590 -4.0140060000000003E5
591 591 8.008002000000001E5
591 592 -3.9939960000000003E5
592 591 -4.0140060000000003E5
592 592 8.008002000000001E5
592 593 -3.9939960000000003E5
593 592 -4.0140060000000003E5
593 593 8.008002000000001E5
593 594 -3.9939960000000003E5
594 593 -4.0140060000000003E5
594 594 8.008002000000001E5
594 595 -3.9939960000000003E5
595 594 -4.0140060000000003E5
595 595 8.008002000000001E5
595 596 -3.9939960000000003E5
596 595 -4.0140060000000003E5
596 596 8.008002000000001E5
596 597 -3.9939960000000003E5
597 596 -4.0140060000000003E5
597 597 8.008002000000001E5
597 598 -3.9939960000000003E5
598 597 -4.0140060000000003E5
598 598 8.008002000000001E5
598 599 -3.9939960000000003E5
599 598 -4.0140060000000003E5
599 599 8.008002000000001E5
599 600 -3.9939960000000003E5
600 599 -4.0140060000000003E5
600 600 8.008002000000001E5
600 601 -3.9939960000000003E5
601 600 -4.0140060000000003E5
601 601 8.008002000000001E5
601 602 -3.9939960000000003E5
602 601 -4.0140060000000003E5
602 602 8.008002000000001E5
602 603 -3.9939960000000003E5
603 602 -4.0140060000000003E5
603 603 8.008002000000001E5
603 604 -3.9939960000000003E5
604 603 -4.0140060000000003E5
604 604 8.008002000000001E5
604 605 -3.9939960000000003E5
605 604 -4.0140060000000003E5
605 605 8.008002000000001E5
605 606 -3.9939960000000003E5
606 605 -4.0140060000000003E5
606 606 8.008002000000001E5
606 607 -3.9939960000000003E5
607 606 -4.0140060000000003E5
607 607 8.008002000000001E5
607 608 -3.9939960000000003E5
608 607 -4.0140060000000003E5
608 608 8.008002000000001E5
608 609 -3.9939960000000003E5
609 608 -4.0140060000000003E5
609 609 8.008002000000001E5
609 610 -3.9939960000000003E5
610 609 -4.0140060000000003E5
610 610 8.008002000000001E5
610 611 -3.9939960000000003E5
611 610 -4.0140060000000003E5
611 611 8.008002000000001E5
611 612 -3.9939960000000003E5
612 611 -4.0140060000000003E5
612 612 8.008002000000001E5
612 613 -3.9939960000000003E5
613 612 -4.0140060000000003E5
613 613 8.008002000000001E5
613 614 -3.9939960000000003E5
614 613 -4.0140060000000003E5
614 614 8.008002000000001E5
614 615 -3.9939960000000003E5
615 614 -4.0140060000000003E5
615 615 8.008002000000001E5
615 616 -3.9939960000000003E5
616 615 -4.0140060000000003E5
616 616 8.008002000000001E5
616 617 -3.9939960000000003E5
617 616 -4.0140060000000003E5
617 617 8.008002000000001E5
617 618 -3.9939960000000003E5
618 617 -4.0140060000000003E5
618 618 8.008002000000001E5
618 619 -3.9939960000000003E5
619 618 -4.0140060000000003E5
619 619 8.008002000000001E5
619 620 -3.9939960000000003E5
620 619 -4.0140060000000003E5
620 620 8.008002000000001E5
620 621 -3.9939960000000003E5
621 620 -4.0140060000000003E5
621 621 8.008002000000001E5
621 622 -3.9939960000000003E5
622 621 -4.0140060000000003E5
622 622 8.008002000000001E5
622 623 -3.9939960000000003E5
623 622 -4.0140060000000003E5
623 623 8.008002000000001E5
623 624 -3.9939960000000003E5
624 623 -4.0140060000000003E5
624 624 8.008002000000001E5
624 625 -3.9939960000000003E5
625 624 -4.0140060000000003E5
625 625 8.008002000000001E5
625 626 -3.9939960000000003E5
626 625 -4.0140060000000003E5
626 626 8.008002000000001E5
626 627 -3.9939960000000003E5
627 626 -4.0140060000000003E5
627 627 8.008002000000001E5
627 628 -3.9939960000000003E5
628 627 -4.0140060000000003E5
628 628 8.008002000000001E5
628 629 -3.9939960000000003E5
629 628 -4.0140060000000003E5
629 629 8.008002000000001E5
629 630 -3.9939960000000003E5
630 629 -4.0140060000000003E5
630 630 8.008002000000001E5
630 631 -3.9939960000000003E5
631 630 -4.0140060000000003E5
631 631 8.008002000000001E5
631 632 -3.9939960000000003E5
632 631 -4.0140060000000003E5
632 632 8.008002000000001E5
632 633 -3.9939960000000003E5
633 632 -4.0140060000000003E5
633 633 8.008002000000001E5
633 634 -3.9939960000000003E5
634 633 -4.0140060000000003E5
634 634 8.008002000000001E5
634 635 -3.9939960000000003E5
635 634 -4.0140060000000003E5
635 635 8.008002000000001E5
635 636 -3.9939960000000003E5
636 635 -4.0140060000000003E5
636 636 8.008002000000001E5
636 637 -3.9939960000000003E5
637 636 -4.0140060000000003E5
637 637 8.008002000000001E5
637 638 -3.9939960000000003E5
638 637 -4.0140060000000003E5
638 638 8.008002000000001E5
638 639 -3.9939960000000003E5
639 638 -4.0140060000000003E5
639 639 8.008002000000001E5
639 640 -3.9939960000000003E5
640 639 -4.0140060000000003E5
640 640 8.008002000000001E5
640 641 -3.9939960000000003E5
641 640 -4.0140060000000003E5
641 641 8.008002000000001E5
641 642 -3.9939960000000003E5
642 641 -4.0140060000000003E5
642 642 8.008002000000001E5
642 643 -3.9939960000000003E5
643 642 -4.0140060000000003E5
643 643 8.008002000000001E5
643 644 -3.9939960000000003E5
644 643 -4.0140060000000003E5
644 644 8.008002000000001E5
644 645 -3.9939960000000003E5
645 644 -4.0140060000000003E5
645 645 8.008002000000001E5
645 646 -3.9939960000000003E5
646 645 -4.0140060000000003E5
646 646 8.008002000000001E5
646 647 -3.9939960000000003E5
647 646 -4.0140060000000003E5
647 647 8.008002000000001E5
647 648 -3.9939960000000003E5
648 647 -4.0140060000000003E5
648 648 8.008002000000001E5
648 649 -3.9939960000000003E5
649 648 -4.0140060000000003E5
649 649 8.008002000000001E5
649 650 -3.9939960000000003E5
650 649 -4.0140060000000003E5
650 650 8.008002000000001E5
650 651 -3.9939960000000003E5
651 650 -4.0140060000000003E5
651 651 8.008002000000001E5
651 652 -3.9939960000000003E5
652 651 -4.0140060000000003E5
652 652 8.008002000000001E5
652 653 -3.9939960000000003E5
653 652 -4.0140060000000003E5
653 653 8.008002000000001E5
653 654 -3.9939960000000003E5
654 653 -4.0140060000000003E5
654 654 8.008002000000001E5
654 655 -3.9939960000000003E5
655 654 -4.0140060000000003E5
655 655 8.008002000000001E5
655 656 -3.9939960000000003E5
656 655 -4.0140060000000003E5
656 656 8.008002000000001E5
656 657 -3.9939960000000003E5
657 656 -4.0140060000000003E5
657 657 8.008002000000001E5
657 658 -3.9939960000000003E5
658 657 -4.0140060000000003E5
658 658 8.008002000000001E5
658 659 -3.9939960000000003E5
659 658 -4.0140060000000003E5
659 659 8.008002000000001E5
659 660 -3.9939960000000003E5
660 659 -4.0140060000000003E5
660 660 8.008002000000001E5
660 661 -3.9939960000000003E5
661 660 -4.0140060000000003E5
661 661 8.008002000000001E5
661 662 -3.9939960000000003E5
662 661 -4.0140060000000003E5
662 662 8.008002000000001E5
662 663 -3.9939960000000003E5
663 662 -4.0140060000000003E5
663 663 8.008002000000001E5
663 664 -3.9939960000000003E5
664 663 -4.0140060000000003E5
664 664 8.008002000000001E5
664 665 -3.9939960000000003E5
665 664 -4.0140060000000003E5
665 665 8.008002000000001E5
665 666 -3.9939960000000003E5
666 665 -4.0140060000000003E5
666 666 8.008002000000001E5
666 667 -3.9939960000000003E5
667 666 -4.0140060000000003E5
667 667 8.008002000000001E5
667 668 -3.9939960000000003E5
668 667 -4.0140060000000003E5
668 668 8.008002000000001E5
668 669 -3.9939960000000003E5
669 668 -4.0140060000000003E5
669 669 8.008002000000001E5
669 670 -3.9939960000000003E5
670 669 -4.0140060000000003E5
670 670 8.008002000000001E5
670 671 -3.9939960000000003E5
671 670 -4.0140060000000003E5
671 671 8.008002000000001E5
671 672 -3.9939960000000003E5
672 671 -4.0140060000000003E5
672 672 8.008002000000001E5
672 673 -3.9939960000000003E5
673 672 -4.0140060000000003E5
673 673 8.008002000000001E5
673 674 -3.9939960000000003E5
674 673 -4.0140060000000003E5
674 674 8.008002000000001E5
674 675 -3.9939960000000003E5
675 674 -4.0140060000000003E5
675 675 8.008002000000001E5
675 676 -3.9939960000000003E5
676 675 -4.0140060000000003E5
676 676 8.008002000000001E5
676 677 -3.9939960000000003E5
677 676 -4.0140060000000003E5
677 677 8.008002000000001E5
677 678 -3.9939960000000003E5
678 677 -4.0140060000000003E5
678 678 8.008002000000001E5
678 679 -3.9939960000000003E5
679 678 -4.0140060000000003E5
679 679 8.008002000000001E5
679 680 -3.9939960000000003E5
680 679 -4.0140060000000003E5
680 680 8.008002000000001E5
680 681 -3.9939960000000003E5
681 680 -4.0140060000000003E5
681 681 8.008002000000001E5
681 682 -3.9939960000000003E5
682 681 -4.0140060000000003E5
682 682 8.008002000000001E5
682 683 -3.9939960000000003E5
683 682 -4.0140060000000003E5
683 683 8.008002000000001E5
683 684 -3.9939960000000003E5
684 683 -4.0140060000000003E5
684 684 8.008002000000001E5
684 685 -3.9939960000000003E5
685 684 -4.0140060000000003E5
685 685 8.008002000000001E5
685 686 -3.9939960000000003E5
686 685 -4.0140060000000003E5
686 686 8.008002000000001E5
686 687 -3.9939960000000003E5
687 686 -4.0140060000000003E5
687 687 8.008002000000001E5
687 688 -3.9939960000000003E5
688 687 -4.0140060000000003E5
688 688 8.008002000000001E5
688 689 -3.9939960000000003E5
689 688 -4.0140060000000003E5
689 689 8.008002000000001E5
689 690 -3.9939960000000003E5
690 689 -4.0140060000000003E5
690 690 8.008002000000001E5
690 691 -3.9939960000000003E5
691 690 -4.0140060000000003E5
691 691 8.008002000000001E5
691 692 -3.9939960000000003E5
692 691 -4.0140060000000003E5
692 692 8.008002000000001E5
692 693 -3.9939960000000003E5
693 692 -4.0140060000000003E5
693 693 8.008002000000001E5
693 694 -3.9939960000000003E5
694 693 -4.0140060000000003E5
694 694 8.008002000000001E5
694 695 -3.9939960000000003E5
695 694 -4.0140060000000003E5
695 695 8.008002000000001E5
695 696 -3.9939960000000003E5
696 695 -4.0140060000000003E5
696 696 8.008002000000001E5
696 697 -3.9939960000000003E5
697 696 -4.0140060000000003E5
697 697 8.008002000000001E5
697 698 -3.9939960000000003E5
698 697 -4.0140060000000003E5
698 698 8.008002000000001E5
698 699 -3.9939960000000003E5
699 698 -4.0140060000000003E5
699 699 8.008002000000001E5
699 700 -3.9939960000000003E5
700 699 -4.0140060000000003E5
700 700 8.008002000000001E5
700 701 -3.9939960000000003E5
701 700 -4.0140060000000003E5
701 701 8.008002000000001E5
701 702 -3.9939960000000003E5
702 701 -4.0140060000000003E5
702 702 8.008002000000001E5
702 703 -3.9939960000000003E5
703 702 -4.0140060000000003E5
703 703 8.008002000000001E5
703 704 -3.9939960000000003E5
704 703 -4.0140060000000003E5
704 704 8.008002000000001E5
704 705 -3.9939960000000003E5
705 704 -4.0140060000000003E5
705 705 8.008002000000001E5
705 706 -3.9939960000000003E5
706 705 -4.0140060000000003E5
706 706 8.008002000000001E5
706 707 -3.9939960000000003E5
707 706 -4.0140060000000003E5
707 707 8.008002000000001E5
707 708 -3.9939960000000003E5
708 707 -4.0140060000000003E5
708 708 8.008002000000001E5
708 709 -3.9939960000000003E5
709 708 -4.0140060000000003E5
709 709 8.008002000000001E5
709 710 -3.9939960000000003E5
710 709 -4.0140060000000003E5
710 710 8.008002000000001E5
710 711 -3.9939960000000003E5
711 710 -4.0140060000000003E5
711 711 8.008002000000001E5
711 712 -3.9939960000000003E5
712 711 -4.0140060000000003E5
712 712 8.008002000000001E5
712 713 -3.9939960000000003E5
713 712 -4.0140060000000003E5
713 713 8.008002000000001E5
713 714 -3.9939960000000003E5
714 713 -4.0140060000000003E5
714 714 8.008002000000001E5
714 715 -3.9939960000000003E5
715 714 -4.0140060000000003E5
715 715 8.008002000000001E5
715 716 -3.9939960000000003E5
716 715 -4.0140060000000003E5
716 716 8.008002000000001E5
716 717 -3.9939960000000003E5
717 716 -4.0140060000000003E5
717 717 8.008002000000001E5
717 718 -3.9939960000000003E5
718 717 -4.0140060000000003E5
718 718 8.008002000000001E5
718 719 -3.9939960000000003E5
719 718 -4.0140060000000003E5
719 719 8.008002000000001E5
719 720 -3.9939960000000003E5
720 719 -4.0140060000000003E5
720 720 8.008002000000001E5
720 721 -3.9939960000000003E5
721 720 -4.0140060000000003E5
721 721 8.008002000000001E5
721 722 -3.9939960000000003E5
722 721 -4.0140060000000003E5
722 722 8.008002000000001E5
722 723 -3.9939960000000003E5
723 722 -4.0140060000000003E5
723 723 8.008002000000001E5
723 724 -3.9939960000000003E5
724 723 -4.0140060000000003E5
724 724 8.008002000000001E5
724 725 -3.9939960000000003E5
725 724 -4.0140060000000003E5
725 725 8.008002000000001E5
725 726 -3.9939960000000003E5
726 725 -4.0140060000000003E5
726 726 8.008002000000001E5
726 727 -3.9939960000000003E5
727 726 -4.0140060000000003E5
727 727 8.008002000000001E5
727 728 -3.9939960000000003E5
728 727 -4.0140060000000003E5
728 728 8.008002000000001E5
728 729 -3.9939960000000003E5
729 728 -4.0140060000000003E5
729 729 8.008002000000001E5
729 730 -3.9939960000000003E5
730 729 -4.0140060000000003E5
730 730 8.008002000000001E5
730 731 -3.9939960000000003E5
731 730 -4.0140060000000003E5
731 731 8.008002000000001E5
731 732 -3.9939960000000003E5
732 731 -4.0140060000000003E5
732 732 8.008002000000001E5
732 733 -3.9939960000000003E5
733 732 -4.0140060000000003E5
733 733 8.008002000000001E5
733 734 -3.9939960000000003E5
734 733 -4.0140060000000003E5
734 734 8.008002000000001E5
734 735 -3.9939960000000003E5
735 734 -4.0140060000000003E5
735 735 8.008002000000001E5
735 736 -3.9939960000000003E5
736 735 -4.0140060000000003E5
736 736 8.008002000000001E5
736 737 -3.9939960000000003E5
737 736 -4.0140060000000003E5
737 737 8.008002000000001E5
737 738 -3.9939960000000003E5
738 737 -4.0140060000000003E5
738 738 8.008002000000001E5
738 739 -3.9939960000000003E5
739 738 -4.0140060000000003E5
739 739 8.008002000000001E5
739 740 -3.9939960000000003E5
740 739 -4.0140060000000003E5
740 740 8.008002000000001E5
740 741 -3.9939960000000003E5
741 740 -4.0140060000000003E5
741 741 8.008002000000001E5
741 742 -3.9939960000000003E5
742 741 -4.0140060000000003E5
742 742 8.008002000000001E5
742 743 -3.9939960000000003E5
743 742 -4.0140060000000003E5
743 743 8.008002000000001E5
743 744 -3.9939960000000003E5
744 743 -4.0140060000000003E5
744 744 8.008002000000001E5
744 745 -3.9939960000000003E5
745 744 -4.0140060000000003E5
745 745 8.008002000000001E5
745 746 -3.9939960000000003E5
746 745 -4.0140060000000003E5
746 746 8.008002000000001E5
746 747 -3.9939960000000003E5
747 746 -4.0140060000000003E5
747 747 8.008002000000001E5
747 748 -3.9939960000000003E5
748 747 -4.0140060000000003E5
748 748 8.008002000000001E5
748 749 -3.9939960000000003E5
749 748 -4.0140060000000003E5
749 749 8.008002000000001E5
749 750 -3.9939960000000003E5
750 749 -4.0140060000000003E5
750 750 8.008002000000001E5
750 751 -3.9939960000000003E5
751 750 -4.0140060000000003E5
751 751 8.008002000000001E5
751 752 -3.9939960000000003E5
752 751 -4.0140060000000003E5
752 752 8.008002000000001E5
752 753 -3.9939960000000003E5
753 752 -4.0140060000000003E5
753 753 8.008002000000001E5
753 754 -3.9939960000000003E5
754 753 -4.0140060000000003E5
754 754 8.008002000000001E5
754 755 -3.9939960000000003E5
755 754 -4.0140060000000003E5
755 755 8.008002000000001E5
755 756 -3.9939960000000003E5
756 755 -4.0140060000000003E5
756 756 8.008002000000001E5
756 757 -3.9939960000000003E5
757 756 -4.0140060000000003E5
757 757 8.008002000000001E5
757 758 -3.9939960000000003E5
758 757 -4.0140060000000003E5
758 758 8.008002000000001E5
758 759 -3.9939960000000003E5
759 758 -4.0140060000000003E5
759 759 8.008002000000001E5
759 760 -3.9939960000000003E5
760 759 -4.0140060000000003E5
760 760 8.008002000000001E5
760 761 -3.9939960000000003E5
761 760 -4.0140060000000003E5
761 761 8.008002000000001E5
761 762 -3.9939960000000003E5
762 761 -4.0140060000000003E5
762 762 8.008002000000001E5
762 763 -3.9939960000000003E5
763 762 -4.0140060000000003E5
763 763 8.008002000000001E5
763 764 -3.9939960000000003E5
764 763 -4.0140060000000003E5
764 764 8.008002000000001E5
764 765 -3.9939960000000003E5
765 764 -4.0140060000000003E5
765 765 8.008002000000001E5
765 766 -3.9939960000000003E5
766 765 -4.0140060000000003E5
766 766 8.008002000000001E5
766 767 -3.9939960000000003E5
767 766 -4.0140060000000003E5
767 767 8.008002000000001E5
767 768 -3.9939960000000003E5
768 767 -4.0140060000000003E5
768 768 8.008002000000001E5
768 769 -3.9939960000000003E5
769 768 -4.0140060000000003E5
769 769 8.008002000000001E5
769 770 -3.9939960000000003E5
770 769 -4.0140060000000003E5
770 770 8.008002000000001E5
770 771 -3.9939960000000003E5
771 770 -4.0140060000000003E5
771 771 8.008002000000001E5
771 772 -3.9939960000000003E5
772 771 -4.0140060000000003E5
772 772 8.008002000000001E5
772 773 -3.9939960000000003E5
773 772 -4.0140060000000003E5
773 773 8.008002000000001E5
773 774 -3.9939960000000003E5
774 773 -4.0140060000000003E5
774 774 8.008002000000001E5
774 775 -3.9939960000000003E5
775 774 -4.0140060000000003E5
775 775 8.008002000000001E5
775 776 -3.9939960000000003E5
776 775 -4.0140060000000003E5
776 776 8.008002000000001E5
776 777 -3.9939960000000003E5
777 776 -4.0140060000000003E5
777 777 8.008002000000001E5
777 778 -3.9939960000000003E5
778 777 -4.0140060000000003E5
778 778 8.008002000000001E5
778 779 -3.9939960000000003E5
779 778 -4.0140060000000003E5
779 779 8.008002000000001E5
779 780 -3.9939960000000003E5
780 779 -4.0140060000000003E5
780 780 8.008002000000001E5
780 781 -3.9939960000000003E5
781 780 -4.0140060000000003E5
781 781 8.008002000000001E5
781 782 -3.9939960000000003E5
782 781 -4.0140060000000003E5
782 782 8.008002000000001E5
782 783 -3.9939960000000003E5
783 782 -4.0140060000000003E5
783 783 8.008002000000001E5
783 784 -3.9939960000000003E5
784 783 -4.0140060000000003E5
784 784 8.008002000000001E5
784 785 -3.9939960000000003E5
785 784 -4.0140060000000003E5
785 785 8.008002000000001E5
785 786 -3.9939960000000003E5
786 785 -4.0140060000000003E5
786 786 8.008002000000001E5
786 787 -3.9939960000000003E5
787 786 -4.0140060000000003E5
787 787 8.008002000000001E5
787 788 -3.9939960000000003E5
788 787 -4.0140060000000003E5
788 788 8.008002000000001E5
788 789 -3.9939960000000003E5
789 788 -4.0140060000000003E5
789 789 8.008002000000001E5
789 790 -3.9939960000000003E5
790 789 -4.0140060000000003E5
790 790 8.008002000000001E5
790 791 -3.9939960000000003E5
791 790 -4.0140060000000003E5
791 791 8.008002000000001E5
791 792 -3.9939960000000003E5
792 791 -4.0140060000000003E5
792 792 8.008002000000001E5
792 793 -3.9939960000000003E5
793 792 -4.0140060000000003E5
793 793 8.008002000000001E5
793 794 -3.9939960000000003E5
794 793 -4.0140060000000003E5
794 794 8.008002000000001E5
794 795 -3.9939960000000003E5
795 794 -4.0140060000000003E5
795 795 8.008002000000001E5
795 796 -3.9939960000000003E5
796 795 -4.0140060000000003E5
796 796 8.008002000000001E5
796 797 -3.9939960000000003E5
797 796 -4.0140060000000003E5
797 797 8.008002000000001E5
797 798 -3.9939960000000003E5
798 797 -4.0140060000000003E5
798 798 8.008002000000001E5
798 799 -3.9939960000000003E5
799 798 -4.0140060000000003E5
799 799 8.008002000000001E5
799 800 -3.9939960000000003E5
800 799 -4.0140060000000003E5
800 800 8.008002000000001E5
800 801 -3.9939960000000003E5
801 800 -4.0140060000000003E5
801 801 8.008002000000001E5
801 802 -3.9939960000000003E5
802 801 -4.0140060000000003E5
802 802 8.008002000000001E5
802 803 -3.9939960000000003E5
803 802 -4.0140060000000003E5
803 803 8.008002000000001E5
803 804 -3.9939960000000003E5
804 803 -4.0140060000000003E5
804 804 8.008002000000001E5
804 805 -3.9939960000000003E5
805 804 -4.0140060000000003E5
805 805 8.008002000000001E5
805 806 -3.9939960000000003E5
806 805 -4.0140060000000003E5
806 806 8.008002000000001E5
806 807 -3.9939960000000003E5
807 806 -4.0140060000000003E5
807 807 8.008002000000001E5
807 808 -3.9939960000000003E5
808 807 -4.0140060000000003E5
808 808 8.008002000000001E5
808 809 -3.9939960000000003E5
809 808 -4.0140060000000003E5
809 809 8.008002000000001E5
809 810 -3.9939960000000003E5
810 809 -4.0140060000000003E5
810 810 8.008002000000001E5
810 811 -3.9939960000000003E5
811 810 -4.0140060000000003E5
811 811 8.008002000000001E5
811 812 -3.9939960000000003E5
812 811 -4.0140060000000003E5
812 812 8.008002000000001E5
812 813 -3.9939960000000003E5
813 812 -4.0140060000000003E5
813 813 8.008002000000001E5
813 814 -3.9939960000000003E5
814 813 -4.0140060000000003E5
814 814 8.008002000000001E5
814 815 -3.9939960000000003E5
815 814 -4.0140060000000003E5
815 815 8.008002000000001E5
815 816 -3.9939960000000003E5
816 815 -4.0140060000000003E5
816 816 8.008002000000001E5
816 817 -3.9939960000000003E5
817 816 -4.0140060000000003E5
817 817 8.008002000000001E5
817 818 -3.9939960000000003E5
818 817 -4.0140060000000003E5
818 818 8.008002000000001E5
818 819 -3.9939960000000003E5
819 818 -4.0140060000000003E5
819 819 8.008002000000001E5
819 820 -3.9939960000000003E5
820 819 -4.0140060000000003E5
820 820 8.008002000000001E5
820 821 -3.9939960000000003E5
821 820 -4.0140060000000003E5
821 821 8.008002000000001E5
821 822 -3.9939960000000003E5
822 821 -4.0140060000000003E5
822 822 8.008002000000001E5
822 823 -3.9939960000000003E5
823 822 -4.0140060000000003E5
823 823 8.008002000000001E5
823 824 -3.9939960000000003E5
824 823 -4.0140060000000003E5
824 824 8.008002000000001E5
824 825 -3.9939960000000003E5
825 824 -4.0140060000000003E5
825 825 8.008002000000001E5
825 826 -3.9939960000000003E5
826 825 -4.0140060000000003E5
826 826 8.008002000000001E5
826 827 -3.9939960000000003E5
827 826 -4.0140060000000003E5
827 827 8.008002000000001E5
827 828 -3.9939960000000003E5
828 827 -4.0140060000000003E5
828 828 8.008002000000001E5
828 829 -3.9939960000000003E5
829 828 -4.0140060000000003E5
829 829 8.008002000000001E5
829 830 -3.9939960000000003E5
830 829 -4.0140060000000003E5
830 830 8.008002000000001E5
830 831 -3.9939960000000003E5
831 830 -4.0140060000000003E5
831 831 8.008002000000001E5
831 832 -3.9939960000000003E5
832 831 -4.0140060000000003E5
832 832 8.008002000000001E5
832 833 -3.9939960000000003E5
833 832 -4.0140060000000003E5
833 833 8.008002000000001E5
833 834 -3.9939960000000003E5
834 833 -4.0140060000000003E5
834 834 8.008002000000001E5
834 835 -3.9939960000000003E5
835 834 -4.0140060000000003E5
835 835 8.008002000000001E5
835 836 -3.9939960000000003E5
836 835 -4.0140060000000003E5
836 836 8.008002000000001E5
836 837 -3.9939960000000003E5
837 836 -4.0140060000000003E5
837 837 8.008002000000001E5
837 838 -3.9939960000000003E5
838 837 -4.0140060000000003E5
838 838 8.008002000000001E5
838 839 -3.9939960000000003E5
839 838 -4.0140060000000003E5
839 839 8.008002000000001E5
839 840 -3.9939960000000003E5
840 839 -4.0140060000000003E5
840 840 8.008002000000001E5
840 841 -3.9939960000000003E5
841 840 -4.0140060000000003E5
841 841 8.008002000000001E5
841 842 -3.9939960000000003E5
842 841 -4.0140060000000003E5
842 842 8.008002000000001E5
842 843 -3.9939960000000003E5
843 842 -4.0140060000000003E5
843 843 8.008002000000001E5
843 844 -3.9939960000000003E5
844 843 -4.0140060000000003E5
844 844 8.008002000000001E5
844 845 -3.9939960000000003E5
845 844 -4.0140060000000003E5
845 845 8.008002000000001E5
845 846 -3.9939960000000003E5
846 845 -4.0140060000000003E5
846 846 8.008002000000001E5
846 847 -3.9939960000000003E5
847 846 -4.0140060000000003E5
847 847 8.008002000000001E5
847 848 -3.9939960000000003E5
848 847 -4.0140060000000003E5
848 848 8.008002000000001E5
848 849 -3.9939960000000003E5
849 848 -4.0140060000000003E5
849 849 8.008002000000001E5
849 850 -3.9939960000000003E5
850 849 -4.0140060000000003E5
850 850 8.008002000000001E5
850 851 -3.9939960000000003E5
851 850 -4.0140060000000003E5
851 851 8.008002000000001E5
851 852 -3.9939960000000003E5
852 851 -4.0140060000000003E5
852 852 8.008002000000001E5
852 853 -3.9939960000000003E5
853 852 -4.0140060000000003E5
853 853 8.008002000000001E5
853 854 -3.9939960000000003E5
854 853 -4.0140060000000003E5
854 854 8.008002000000001E5
854 855 -3.9939960000000003E5
855 854 -4.0140060000000003E5
855 855 8.008002000000001E5
855 856 -3.9939960000000003E5
856 855 -4.0140060000000003E5
856 856 8.008002000000001E5
856 857 -3.9939960000000003E5
857 856 -4.0140060000000003E5
857 857 8.008002000000001E5
857 858 -3.9939960000000003E5
858 857 -4.0140060000000003E5
858 858 8.008002000000001E5
858 859 -3.9939960000000003E5
859 858 -4.0140060000000003E5
859 859 8.008002000000001E5
859 860 -3.9939960000000003E5
860 859 -4.0140060000000003E5
860 860 8.008002000000001E5
860 861 -3.9939960000000003E5
861 860 -4.0140060000000003E5
861 861 8.008002000000001E5
861 862 -3.9939960000000003E5
862 861 -4.0140060000000003E5
862 862 8.008002000000001E5
862 863 -3.9939960000000003E5
863 862 -4.0140060000000003E5
863 863 8.008002000000001E5
863 864 -3.9939960000000003E5
864 863 -4.0140060000000003E5
864 864 8.008002000000001E5
864 865 -3.9939960000000003E5
865 864 -4.0140060000000003E5
865 865 8.008002000000001E5
865 866 -3.9939960000000003E5
866 865 -4.0140060000000003E5
866 866 8.008002000000001E5
866 867 -3.9939960000000003E5
867 866 -4.0140060000000003E5
867 867 8.008002000000001E5
867 868 -3.9939960000000003E5
868 867 -4.0140060000000003E5
868 868 8.008002000000001E5
868 869 -3.9939960000000003E5
869 868 -4.0140060000000003E5
869 869 8.008002000000001E5
869 870 -3.9939960000000003E5
870 869 -4.0140060000000003E5
870 870 8.008002000000001E5
870 871 -3.9939960000000003E5
871 870 -4.0140060000000003E5
871 871 8.008002000000001E5
871 872 -3.9939960000000003E5
872 871 -4.0140060000000003E5
872 872 8.008002000000001E5
872 873 -3.9939960000000003E5
873 872 -4.0140060000000003E5
873 873 8.008002000000001E5
873 874 -3.9939960000000003E5
874 873 -4.0140060000000003E5
874 874 8.008002000000001E5
874 875 -3.9939960000000003E5
875 874 -4.0140060000000003E5
875 875 8.008002000000001E5
875 876 -3.9939960000000003E5
876 875 -4.0140060000000003E5
876 876 8.008002000000001E5
876 877 -3.9939960000000003E5
877 876 -4.0140060000000003E5
877 877 8.008002000000001E5
877 878 -3.9939960000000003E5
878 877 -4.0140060000000003E5
878 878 8.008002000000001E5
878 879 -3.9939960000000003E5
879 878 -4.0140060000000003E5
879 879 8.008002000000001E5
879 880 -3.9939960000000003E5
880 879 -4.0140060000000003E5
880 880 8.008002000000001E5
880 881 -3.9939960000000003E5
881 880 -4.0140060000000003E5
881 881 8.008002000000001E5
881 882 -3.9939960000000003E5
882 881 -4.0140060000000003E5
882 882 8.008002000000001E5
882 883 -3.9939960000000003E5
883 882 -4.0140060000000003E5
883 883 8.008002000000001E5
883 884 -3.9939960000000003E5
884 883 -4.0140060000000003E5
884 884 8.008002000000001E5
884 885 -3.9939960000000003E5
885 884 -4.0140060000000003E5
885 885 8.008002000000001E5
885 886 -3.9939960000000003E5
886 885 -4.0140060000000003E5
886 886 8.008002000000001E5
886 887 -3.9939960000000003E5
887 886 -4.0140060000000003E5
887 887 8.008002000000001E5
887 888 -3.9939960000000003E5
888 887 -4.0140060000000003E5
888 888 8.008002000000001E5
888 889 -3.9939960000000003E5
889 888 -4.0140060000000003E5
889 889 8.008002000000001E5
889 890 -3.9939960000000003E5
890 889 -4.0140060000000003E5
890 890 8.008002000000001E5
890 891 -3.9939960000000003E5
891 890 -4.0140060000000003E5
891 891 8.008002000000001E5
891 892 -3.9939960000000003E5
892 891 -4.0140060000000003E5
892 892 8.008002000000001E5
892 893 -3.9939960000000003E5
893 892 -4.0140060000000003E5
893 893 8.008002000000001E5
893 894 -3.9939960000000003E5
894 893 -4.0140060000000003E5
894 894 8.008002000000001E5
894 895 -3.9939960000000003E5
895 894 -4.0140060000000003E5
895 895 8.008002000000001E5
895 896 -3.9939960000000003E5
896 895 -4.0140060000000003E5
896 896 8.008002000000001E5
896 897 -3.9939960000000003E5
897 896 -4.0140060000000003E5
897 897 8.008002000000001E5
897 898 -3.9939960000000003E5
898 897 -4.0140060000000003E5
898 898 8.008002000000001E5
898 899 -3.9939960000000003E5
899 898 -4.0140060000000003E5
899 899 8.008002000000001E5
899 900 -3.9939960000000003E5
900 899 -4.0140060000000003E5
900 900 8.008002000000001E5
900 901 -3.9939960000000003E5
901 900 -4.0140060000000003E5
901 901 8.008002000000001E5
901 902 -3.9939960000000003E5
902 901 -4.0140060000000003E5
902 902 8.008002000000001E5
902 903 -3.9939960000000003E5
903 902 -4.0140060000000003E5
903 903 8.008002000000001E5
903 904 -3.9939960000000003E5
904 903 -4.0140060000000003E5
904 904 8.008002000000001E5
904 905 -3.9939960000000003E5
905 904 -4.0140060000000003E5
905 905 8.008002000000001E5
905 906 -3.9939960000000003E5
906 905 -4.0140060000000003E5
906 906 8.008002000000001E5
906 907 -3.9939960000000003E5
907 906 -4.0140060000000003E5
907 907 8.008002000000001E5
907 908 -3.9939960000000003E5
908 907 -4.0140060000000003E5
908 908 8.008002000000001E5
908 909 -3.9939960000000003E5
909 908 -4.0140060000000003E5
909 909 8.008002000000001E5
909 910 -3.9939960000000003E5
910 909 -4.0140060000000003E5
910 910 8.008002000000001E5
910 911 -3.9939960000000003E5
911 910 -4.0140060000000003E5
911 911 8.008002000000001E5
911 912 -3.9939960000000003E5
912 911 -4.0140060000000003E5
912 912 8.008002000000001E5
912 913 -3.9939960000000003E5
913 912 -4.0140060000000003E5
913 913 8.008002000000001E5
913 914 -3.9939960000000003E5
914 913 -4.0140060000000003E5
914 914 8.008002000000001E5
914 915 -3.9939960000000003E5
915 914 -4.0140060000000003E5
915 915 8.008002000000001E5
915 916 -3.9939960000000003E5
916 915 -4.0140060000000003E5
916 916 8.008002000000001E5
916 917 -3.9939960000000003E5
917 916 -4.0140060000000003E5
917 917 8.008002000000001E5
917 918 -3.9939960000000003E5
918 917 -4.0140060000000003E5
918 918 8.008002000000001E5
918 919 -3.9939960000000003E5
919 918 -4.0140060000000003E5
919 919 8.008002000000001E5
919 920 -3.9939960000000003E5
920 919 -4.0140060000000003E5
920 920 8.008002000000001E5
920 921 -3.9939960000000003E5
921 920 -4.0140060000000003E5
921 921 8.008002000000001E5
921 922 -3.9939960000000003E5
922 921 -4.0140060000000003E5
922 922 8.008002000000001E5
922 923 -3.9939960000000003E5
923 922 -4.0140060000000003E5
923 923 8.008002000000001E5
923 924 -3.9939960000000003E5
924 923 -4.0140060000000003E5
924 924 8.008002000000001E5
924 925 -3.9939960000000003E5
925 924 -4.0140060000000003E5
925 925 8.008002000000001E5
925 926 -3.9939960000000003E5
926 925 -4.0140060000000003E5
926 926 8.008002000000001E5
926 927 -3.9939960000000003E5
927 926 -4.0140060000000003E5
927 927 8.008002000000001E5
927 928 -3.9939960000000003E5
928 927 -4.0140060000000003E5
928 928 8.008002000000001E5
928 929 -3.9939960000000003E5
929 928 -4.0140060000000003E5
929 929 8.008002000000001E5
929 930 -3.9939960000000003E5
930 929 -4.0140060000000003E5
930 930 8.008002000000001E5
930 931 -3.9939960000000003E5
931 930 -4.0140060000000003E5
931 931 8.008002000000001E5
931 932 -3.9939960000000003E5
932 931 -4.0140060000000003E5
932 932 8.008002000000001E5
932 933 -3.9939960000000003E5
933 932 -4.0140060000000003E5
933 933 8.008002000000001E5
933 934 -3.9939960000000003E5
934 933 -4.0140060000000003E5
934 934 8.008002000000001E5
934 935 -3.9939960000000003E5
935 934 -4.0140060000000003E5
935 935 8.008002000000001E5
935 936 -3.9939960000000003E5
936 935 -4.0140060000000003E5
936 936 8.008002000000001E5
936 937 -3.9939960000000003E5
937 936 -4.0140060000000003E5
937 937 8.008002000000001E5
937 938 -3.9939960000000003E5
938 937 -4.0140060000000003E5
938 938 8.008002000000001E5
938 939 -3.9939960000000003E5
939 938 -4.0140060000000003E5
939 939 8.008002000000001E5
939 940 -3.9939960000000003E5
940 939 -4.0140060000000003E5
940 940 8.008002000000001E5
940 941 -3.9939960000000003E5
941 940 -4.0140060000000003E5
941 941 8.008002000000001E5
941 942 -3.9939960000000003E5
942 941 -4.0140060000000003E5
942 942 8.008002000000001E5
942 943 -3.9939960000000003E5
943 942 -4.0140060000000003E5
943 943 8.008002000000001E5
943 944 -3.9939960000000003E5
944 943 -4.0140060000000003E5
944 944 8.008002000000001E5
944 945 -3.9939960000000003E5
945 944 -4.0140060000000003E5
945 945 8.008002000000001E5
945 946 -3.9939960000000003E5
946 945 -4.0140060000000003E5
946 946 8.008002000000001E5
946 947 -3.9939960000000003E5
947 946 -4.0140060000000003E5
947 947 8.008002000000001E5
947 948 -3.9939960000000003E5
948 947 -4.0140060000000003E5
948 948 8.008002000000001E5
948 949 -3.9939960000000003E5
949 948 -4.0140060000000003E5
949 949 8.008002000000001E5
949 950 -3.9939960000000003E5
950 949 -4.0140060000000003E5
950 950 8.008002000000001E5
950 951 -3.9939960000000003E5
951 950 -4.0140060000000003E5
951 951 8.008002000000001E5
951 952 -3.9939960000000003E5
952 951 -4.0140060000000003E5
952 952 8.008002000000001E5
952 953 -3.9939960000000003E5
953 952 -4.0140060000000003E5
953 953 8.008002000000001E5
953 954 -3.9939960000000003E5
954 953 -4.0140060000000003E5
954 954 8.008002000000001E5
954 955 -3.9939960000000003E5
955 954 -4.0140060000000003E5
955 955 8.008002000000001E5
955 956 -3.9939960000000003E5
956 955 -4.0140060000000003E5
956 956 8.008002000000001E5
956 957 -3.9939960000000003E5
957 956 -4.0140060000000003E5
957 957 8.008002000000001E5
957 958 -3.9939960000000003E5
958 957 -4.0140060000000003E5
958 958 8.008002000000001E5
958 959 -3.9939960000000003E5
959 958 -4.0140060000000003E5
959 959 8.008002000000001E5
959 960 -3.9939960000000003E5
960 959 -4.0140060000000003E5
960 960 8.008002000000001E5
960 961 -3.9939960000000003E5
961 960 -4.0140060000000003E5
961 961 8.008002000000001E5
961 962 -3.9939960000000003E5
962 961 -4.0140060000000003E5
962 962 8.008002000000001E5
962 963 -3.9939960000000003E5
963 962 -4.0140060000000003E5
963 963 8.008002000000001E5
963 964 -3.9939960000000003E5
964 963 -4.0140060000000003E5
964 964 8.008002000000001E5
964 965 -3.9939960000000003E5
965 964 -4.0140060000000003E5
965 965 8.008002000000001E5
965 966 -3.9939960000000003E5
966 965 -4.0140060000000003E5
966 966 8.008002000000001E5
966 967 -3.9939960000000003E5
967 966 -4.0140060000000003E5
967 967 8.008002000000001E5
967 968 -3.9939960000000003E5
968 967 -4.0140060000000003E5
968 968 8.008002000000001E5
968 969 -3.9939960000000003E5
969 968 -4.0140060000000003E5
969 969 8.008002000000001E5
969 970 -3.9939960000000003E5
970 969 -4.0140060000000003E5
970 970 8.008002000000001E5
970 971 -3.9939960000000003E5
971 970 -4.0140060000000003E5
971 971 8.008002000000001E5
971 972 -3.9939960000000003E5
972 971 -4.0140060000000003E5
972 972 8.008002000000001E5
972 973 -3.9939960000000003E5
973 972 -4.0140060000000003E5
973 973 8.008002000000001E5
973 974 -3.9939960000000003E5
974 973 -4.0140060000000003E5
974 974 8.008002000000001E5
974 975 -3.9939960000000003E5
975 974 -4.0140060000000003E5
975 975 8.008002000000001E5
975 976 -3.9939960000000003E5
976 975 -4.0140060000000003E5
976 976 8.008002000000001E5
976 977 -3.9939960000000003E5
977 976 -4.0140060000000003E5
977 977 8.008002000000001E5
977 978 -3.9939960000000003E5
978 977 -4.0140060000000003E5
978 978 8.008002000000001E5
978 979 -3.9939960000000003E5
979 978 -4.0140060000000003E5
979 979 8.008002000000001E5
979 980 -3.9939960000000003E5
980 979 -4.0140060000000003E5
980 980 8.008002000000001E5
980 981 -3.9939960000000003E5
981 980 -4.0140060000000003E5
981 981 8.008002000000001E5
981 982 -3.9939960000000003E5
982 981 -4.0140060000000003E5
982 982 8.008002000000001E5
982 983 -3.9939960000000003E5
983 982 -4.0140060000000003E5
983 983 8.008002000000001E5
983 984 -3.9939960000000003E5
984 983 -4.0140060000000003E5
984 984 8.008002000000001E5
984 985 -3.9939960000000003E5
985 984 -4.0140060000000003E5
985 985 8.008002000000001E5
985 986 -3.9939960000000003E5
986 985 -4.0140060000000003E5
986 986 8.008002000000001E5
986 987 -3.9939960000000003E5
987 986 -4.0140060000000003E5
987 987 8.008002000000001E5
987 988 -3.9939960000000003E5
988 987 -4.0140060000000003E5
988 988 8.008002000000001E5
988 989 -3.9939960000000003E5
989 988 -4.0140060000000003E5
989 989 8.008002000000001E5
989 990 -3.9939960000000003E5
990 989 -4.0140060000000003E5
990 990 8.008002000000001E5
990 991 -3.9939960000000003E5
991 990 -4.0140060000000003E5
991 991 8.008002000000001E5
991 992 -3.9939960000000003E5
992 991 -4.0140060000000003E5
992 992 8.008002000000001E5
992 993 -3.9939960000000003E5
993 992 -4.0140060000000003E5
993 993 8.008002000000001E5
993 994 -3.9939960000000003E5
994 993 -4.0140060000000003E5
994 994 8.008002000000001E5
994 995 -3.9939960000000003E5
995 994 -4.0140060000000003E5
995 995 8.008002000000001E5
995 996 -3.9939960000000003E5
996 995 -4.0140060000000003E5
996 996 8.008002000000001E5
996 997 -3.9939960000000003E5
997 996 -4.0140060000000003E5
997 997 8.008002000000001E5
997 998 -3.9939960000000003E5
998 997 -4.0140060000000003E5
998 998 8.008002000000001E5
998 999 -3.9939960000000003E5
999 998 -4.0140060000000003E5
999 999 8.008002000000001E5
999 1000 -3.9939960000000003E5
1000 999 -4.0140060000000003E5
1000 1000 8.008002000000001E5
1000 1001 -3.9939960000000003E5
1001 1000 -4.0140060000000003E5
1001 1001 8.008002000000001E5
1001 1002 -3.9939960000000003E5
1002 1001 -4.0140060000000003E5
1002 1002 8.008002000000001E5
1002 1003 -3.9939960000000003E5
1003 1002 -4.0140060000000003E5
1003 1003 8.008002000000001E5
1003 1004 -3.9939960000000003E5
1004 1003 -4.0140060000000003E5
1004 1004 8.008002000000001E5
1004 1005 -3.9939960000000003E5
1005 1004 -4.0140060000000003E5
1005 1005 8.008002000000001E5
1005 1006 -3.9939960000000003E5
1006 1005 -4.0140060000000003E5
1006 1006 8.008002000000001E5
1006 1007 -3.9939960000000003E5
1007 1006 -4.0140060000000003E5
1007 1007 8.008002000000001E5
1007 1008 -3.9939960000000003E5
1008 1007 -4.0140060000000003E5
1008 1008 8.008002000000001E5
1008 1009 -3.9939960000000003E5
1009 1008 -4.0140060000000003E5
1009 1009 8.008002000000001E5
1009 1010 -3.9939960000000003E5
1010 1009 -4.0140060000000003E5
1010 1010 8.008002000000001E5
1010 1011 -3.9939960000000003E5
1011 1010 -4.0140060000000003E5
1011 1011 8.008002000000001E5
1011 1012 -3.9939960000000003E5
1012 1011 -4.0140060000000003E5
1012 1012 8.008002000000001E5
1012 1013 -3.9939960000000003E5
1013 1012 -4.0140060000000003E5
1013 1013 8.008002000000001E5
1013 1014 -3.9939960000000003E5
1014 1013 -4.0140060000000003E5
1014 1014 8.008002000000001E5
1014 1015 -3.9939960000000003E5
1015 1014 -4.0140060000000003E5
1015 1015 8.008002000000001E5
1015 1016 -3.9939960000000003E5
1016 1015 -4.0140060000000003E5
1016 1016 8.008002000000001E5
1016 1017 -3.9939960000000003E5
1017 1016 -4.0140060000000003E5
1017 1017 8.008002000000001E5
1017 1018 -3.9939960000000003E5
1018 1017 -4.0140060000000003E5
1018 1018 8.008002000000001E5
1018 1019 -3.9939960000000003E5
1019 1018 -4.0140060000000003E5
1019 1019 8.008002000000001E5
1019 1020 -3.9939960000000003E5
1020 1019 -4.0140060000000003E5
1020 1020 8.008002000000001E5
1020 1021 -3.9939960000000003E5
1021 1020 -4.0140060000000003E5
1021 1021 8.008002000000001E5
1021 1022 -3.9939960000000003E5
1022 1021 -4.0140060000000003E5
1022 1022 8.008002000000001E5
1022 1023 -3.9939960000000003E5
1023 1022 -4.0140060000000003E5
1023 1023 8.008002000000001E5
1023 1024 -3.9939960000000003E5
1024 1023 -4.0140060000000003E5
1024 1024 8.008002000000001E5
1024 1025 -3.9939960000000003E5
1025 1024 -4.0140060000000003E5
1025 1025 8.008002000000001E5
1025 1026 -3.9939960000000003E5
1026 1025 -4.0140060000000003E5
1026 1026 8.008002000000001E5
1026 1027 -3.9939960000000003E5
1027 1026 -4.0140060000000003E5
1027 1027 8.008002000000001E5
1027 1028 -3.9939960000000003E5
1028 1027 -4.0140060000000003E5
1028 1028 8.008002000000001E5
1028 1029 -3.9939960000000003E5
1029 1028 -4.0140060000000003E5
1029 1029 8.008002000000001E5
1029 1030 -3.9939960000000003E5
1030 1029 -4.0140060000000003E5
1030 1030 8.008002000000001E5
1030 1031 -3.9939960000000003E5
1031 1030 -4.0140060000000003E5
1031 1031 8.008002000000001E5
1031 1032 -3.9939960000000003E5
1032 1031 -4.0140060000000003E5
1032 1032 8.008002000000001E5
1032 1033 -3.9939960000000003E5
1033 1032 -4.0140060000000003E5
1033 1033 8.008002000000001E5
1033 1034 -3.9939960000000003E5
1034 1033 -4.0140060000000003E5
1034 1034 8.008002000000001E5
1034 1035 -3.9939960000000003E5
1035 1034 -4.0140060000000003E5
1035 1035 8.008002000000001E5
1035 1036 -3.9939960000000003E5
1036 1035 -4.0140060000000003E5
1036 1036 8.008002000000001E5
1036 1037 -3.9939960000000003E5
1037 1036 -4.0140060000000003E5
1037 1037 8.008002000000001E5
1037 1038 -3.9939960000000003E5
1038 1037 -4.0140060000000003E5
1038 1038 8.008002000000001E5
1038 1039 -3.9939960000000003E5
1039 1038 -4.0140060000000003E5
1039 1039 8.008002000000001E5
1039 1040 -3.9939960000000003E5
1040 1039 -4.0140060000000003E5
1040 1040 8.008002000000001E5
1040 1041 -3.9939960000000003E5
1041 1040 -4.0140060000000003E5
1041 1041 8.008002000000001E5
1041 1042 -3.9939960000000003E5
1042 1041 -4.0140060000000003E5
1042 1042 8.008002000000001E5
1042 1043 -3.9939960000000003E5
1043 1042 -4.0140060000000003E5
1043 1043 8.008002000000001E5
1043 1044 -3.9939960000000003E5
1044 1043 -4.0140060000000003E5
1044 1044 8.008002000000001E5
1044 1045 -3.9939960000000003E5
1045 1044 -4.0140060000000003E5
1045 1045 8.008002000000001E5
1045 1046 -3.9939960000000003E5
1046 1045 -4.0140060000000003E5
1046 1046 8.008002000000001E5
1046 1047 -3.9939960000000003E5
1047 1046 -4.0140060000000003E5
1047 1047 8.008002000000001E5
1047 1048 -3.9939960000000003E5
1048 1047 -4.0140060000000003E5
1048 1048 8.008002000000001E5
1048 1049 -3.9939960000000003E5
1049 1048 -4.0140060000000003E5
1049 1049 8.008002000000001E5
1049 1050 -3.9939960000000003E5
1050 1049 -4.0140060000000003E5
1050 1050 8.008002000000001E5
1050 1051 -3.9939960000000003E5
1051 1050 -4.0140060000000003E5
1051 1051 8.008002000000001E5
1051 1052 -3.9939960000000003E5
1052 1051 -4.0140060000000003E5
1052 1052 8.008002000000001E5
1052 1053 -3.9939960000000003E5
1053 1052 -4.0140060000000003E5
1053 1053 8.008002000000001E5
1053 1054 -3.9939960000000003E5
1054 1053 -4.0140060000000003E5
1054 1054 8.008002000000001E5
1054 1055 -3.9939960000000003E5
1055 1054 -4.0140060000000003E5
1055 1055 8.008002000000001E5
1055 1056 -3.9939960000000003E5
1056 1055 -4.0140060000000003E5
1056 1056 8.008002000000001E5
1056 1057 -3.9939960000000003E5
1057 1056 -4.0140060000000003E5
1057 1057 8.008002000000001E5
1057 1058 -3.9939960000000003E5
1058 1057 -4.0140060000000003E5
1058 1058 8.008002000000001E5
1058 1059 -3.9939960000000003E5
1059 1058 -4.0140060000000003E5
1059 1059 8.008002000000001E5
1059 1060 -3.9939960000000003E5
1060 1059 -4.0140060000000003E5
1060 1060 8.008002000000001E5
1060 1061 -3.9939960000000003E5
1061 1060 -4.0140060000000003E5
1061 1061 8.008002000000001E5
1061 1062 -3.9939960000000003E5
1062 1061 -4.0140060000000003E5
1062 1062 8.008002000000001E5
1062 1063 -3.9939960000000003E5
1063 1062 -4.0140060000000003E5
1063 1063 8.008002000000001E5
1063 1064 -3.9939960000000003E5
1064 1063 -4.0140060000000003E5
1064 1064 8.008002000000001E5
1064 1065 -3.9939960000000003E5
1065 1064 -4.0140060000000003E5
1065 1065 8.008002000000001E5
1065 1066 -3.9939960000000003E5
1066 1065 -4.0140060000000003E5
1066 1066 8.008002000000001E5
1066 1067 -3.9939960000000003E5
1067 1066 -4.0140060000000003E5
1067 1067 8.008002000000001E5
1067 1068 -3.9939960000000003E5
1068 1067 -4.0140060000000003E5
1068 1068 8.008002000000001E5
1068 1069 -3.9939960000000003E5
1069 1068 -4.0140060000000003E5
1069 1069 8.008002000000001E5
1069 1070 -3.9939960000000003E5
1070 1069 -4.0140060000000003E5
1070 1070 8.008002000000001E5
1070 1071 -3.9939960000000003E5
1071 1070 -4.0140060000000003E5
1071 1071 8.008002000000001E5
1071 1072 -3.9939960000000003E5
1072 1071 -4.0140060000000003E5
1072 1072 8.008002000000001E5
1072 1073 -3.9939960000000003E5
1073 1072 -4.0140060000000003E5
1073 1073 8.008002000000001E5
1073 1074 -3.9939960000000003E5
1074 1073 -4.0140060000000003E5
1074 1074 8.008002000000001E5
1074 1075 -3.9939960000000003E5
1075 1074 -4.0140060000000003E5
1075 1075 8.008002000000001E5
1075 1076 -3.9939960000000003E5
1076 1075 -4.0140060000000003E5
1076 1076 8.008002000000001E5
1076 1077 -3.9939960000000003E5
1077 1076 -4.0140060000000003E5
1077 1077 8.008002000000001E5
1077 1078 -3.9939960000000003E5
1078 1077 -4.0140060000000003E5
1078 1078 8.008002000000001E5
1078 1079 -3.9939960000000003E5
1079 1078 -4.0140060000000003E5
1079 1079 8.008002000000001E5
1079 1080 -3.9939960000000003E5
1080 1079 -4.0140060000000003E5
1080 1080 8.008002000000001E5
1080 1081 -3.9939960000000003E5
1081 1080 -4.0140060000000003E5
1081 1081 8.008002000000001E5
1081 1082 -3.9939960000000003E5
1082 1081 -4.0140060000000003E5
1082 1082 8.008002000000001E5
1082 1083 -3.9939960000000003E5
1083 1082 -4.0140060000000003E5
1083 1083 8.008002000000001E5
1083 1084 -3.9939960000000003E5
1084 1083 -4.0140060000000003E5
1084 1084 8.008002000000001E5
1084 1085 -3.9939960000000003E5
1085 1084 -4.0140060000000003E5
1085 1085 8.008002000000001E5
1085 1086 -3.9939960000000003E5
1086 1085 -4.0140060000000003E5
1086 1086 8.008002000000001E5
1086 1087 -3.9939960000000003E5
1087 1086 -4.0140060000000003E5
1087 1087 8.008002000000001E5
1087 1088 -3.9939960000000003E5
1088 1087 -4.0140060000000003E5
1088 1088 8.008002000000001E5
1088 1089 -3.9939960000000003E5
1089 1088 -4.0140060000000003E5
1089 1089 8.008002000000001E5
1089 1090 -3.9939960000000003E5
1090 1089 -4.0140060000000003E5
1090 1090 8.008002000000001E5
1090 1091 -3.9939960000000003E5
1091 1090 -4.0140060000000003E5
1091 1091 8.008002000000001E5
1091 1092 -3.9939960000000003E5
1092 1091 -4.0140060000000003E5
1092 1092 8.008002000000001E5
1092 1093 -3.9939960000000003E5
1093 1092 -4.0140060000000003E5
1093 1093 8.008002000000001E5
1093 1094 -3.9939960000000003E5
1094 1093 -4.0140060000000003E5
1094 1094 8.008002000000001E5
1094 1095 -3.9939960000000003E5
1095 1094 -4.0140060000000003E5
1095 1095 8.008002000000001E5
1095 1096 -3.9939960000000003E5
1096 1095 -4.0140060000000003E5
1096 1096 8.008002000000001E5
1096 1097 -3.9939960000000003E5
1097 1096 -4.0140060000000003E5
1097 1097 8.008002000000001E5
1097 1098 -3.9939960000000003E5
1098 1097 -4.0140060000000003E5
1098 1098 8.008002000000001E5
1098 1099 -3.9939960000000003E5
1099 1098 -4.0140060000000003E5
1099 1099 8.008002000000001E5
1099 1100 -3.9939960000000003E5
1100 1099 -4.0140060000000003E5
1100 1100 8.008002000000001E5
1100 1101 -3.9939960000000003E5
1101 1100 -4.0140060000000003E5
1101 1101 8.008002000000001E5
1101 1102 -3.9939960000000003E5
1102 1101 -4.0140060000000003E5
1102 1102 8.008002000000001E5
1102 1103 -3.9939960000000003E5
1103 1102 -4.0140060000000003E5
1103 1103 8.008002000000001E5
1103 1104 -3.9939960000000003E5
1104 1103 -4.0140060000000003E5
1104 1104 8.008002000000001E5
1104 1105 -3.9939960000000003E5
1105 1104 -4.0140060000000003E5
1105 1105 8.008002000000001E5
1105 1106 -3.9939960000000003E5
1106 1105 -4.0140060000000003E5
1106 1106 8.008002000000001E5
1106 1107 -3.9939960000000003E5
1107 1106 -4.0140060000000003E5
1107 1107 8.008002000000001E5
1107 1108 -3.9939960000000003E5
1108 1107 -4.0140060000000003E5
1108 1108 8.008002000000001E5
1108 1109 -3.9939960000000003E5
1109 1108 -4.0140060000000003E5
1109 1109 8.008002000000001E5
1109 1110 -3.9939960000000003E5
1110 1109 -4.0140060000000003E5
1110 1110 8.008002000000001E5
1110 1111 -3.9939960000000003E5
1111 1110 -4.0140060000000003E5
1111 1111 8.008002000000001E5
1111 1112 -3.9939960000000003E5
1112 1111 -4.0140060000000003E5
1112 1112 8.008002000000001E5
1112 1113 -3.9939960000000003E5
1113 1112 -4.0140060000000003E5
1113 1113 8.008002000000001E5
1113 1114 -3.9939960000000003E5
1114 1113 -4.0140060000000003E5
1114 1114 8.008002000000001E5
1114 1115 -3.9939960000000003E5
1115 1114 -4.0140060000000003E5
1115 1115 8.008002000000001E5
1115 1116 -3.9939960000000003E5
1116 1115 -4.0140060000000003E5
1116 1116 8.008002000000001E5
1116 1117 -3.9939960000000003E5
1117 1116 -4.0140060000000003E5
1117 1117 8.008002000000001E5
1117 1118 -3.9939960000000003E5
1118 1117 -4.0140060000000003E5
1118 1118 8.008002000000001E5
1118 1119 -3.9939960000000003E5
1119 1118 -4.0140060000000003E5
1119 1119 8.008002000000001E5
1119 1120 -3.9939960000000003E5
1120 1119 -4.0140060000000003E5
1120 1120 8.008002000000001E5
1120 1121 -3.9939960000000003E5
1121 1120 -4.0140060000000003E5
1121 1121 8.008002000000001E5
1121 1122 -3.9939960000000003E5
1122 1121 -4.0140060000000003E5
1122 1122 8.008002000000001E5
1122 1123 -3.9939960000000003E5
1123 1122 -4.0140060000000003E5
1123 1123 8.008002000000001E5
1123 1124 -3.9939960000000003E5
1124 1123 -4.0140060000000003E5
1124 1124 8.008002000000001E5
1124 1125 -3.9939960000000003E5
1125 1124 -4.0140060000000003E5
1125 1125 8.008002000000001E5
1125 1126 -3.9939960000000003E5
1126 1125 -4.0140060000000003E5
1126 1126 8.008002000000001E5
1126 1127 -3.9939960000000003E5
1127 1126 -4.0140060000000003E5
1127 1127 8.008002000000001E5
1127 1128 -3.9939960000000003E5
1128 1127 -4.0140060000000003E5
1128 1128 8.008002000000001E5
1128 1129 -3.9939960000000003E5
1129 1128 -4.0140060000000003E5
1129 1129 8.008002000000001E5
1129 1130 -3.9939960000000003E5
1130 1129 -4.0140060000000003E5
1130 1130 8.008002000000001E5
1130 1131 -3.9939960000000003E5
1131 1130 -4.0140060000000003E5
1131 1131 8.008002000000001E5
1131 1132 -3.9939960000000003E5
1132 1131 -4.0140060000000003E5
1132 1132 8.008002000000001E5
1132 1133 -3.9939960000000003E5
1133 1132 -4.0140060000000003E5
1133 1133 8.008002000000001E5
1133 1134 -3.9939960000000003E5
1134 1133 -4.0140060000000003E5
1134 1134 8.008002000000001E5
1134 1135 -3.9939960000000003E5
1135 1134 -4.0140060000000003E5
1135 1135 8.008002000000001E5
1135 1136 -3.9939960000000003E5
1136 1135 -4.0140060000000003E5
1136 1136 8.008002000000001E5
1136 1137 -3.9939960000000003E5
1137 1136 -4.0140060000000003E5
1137 1137 8.008002000000001E5
1137 1138 -3.9939960000000003E5
1138 1137 -4.0140060000000003E5
1138 1138 8.008002000000001E5
1138 1139 -3.9939960000000003E5
1139 1138 -4.0140060000000003E5
1139 1139 8.008002000000001E5
1139 1140 -3.9939960000000003E5
1140 1139 -4.0140060000000003E5
1140 1140 8.008002000000001E5
1140 1141 -3.9939960000000003E5
1141 1140 -4.0140060000000003E5
1141 1141 8.008002000000001E5
1141 1142 -3.9939960000000003E5
1142 1141 -4.0140060000000003E5
1142 1142 8.008002000000001E5
1142 1143 -3.9939960000000003E5
1143 1142 -4.0140060000000003E5
1143 1143 8.008002000000001E5
1143 1144 -3.9939960000000003E5
1144 1143 -4.0140060000000003E5
1144 1144 8.008002000000001E5
1144 1145 -3.9939960000000003E5
1145 1144 -4.0140060000000003E5
1145 1145 8.008002000000001E5
1145 1146 -3.9939960000000003E5
1146 1145 -4.0140060000000003E5
1146 1146 8.008002000000001E5
1146 1147 -3.9939960000000003E5
1147 1146 -4.0140060000000003E5
1147 1147 8.008002000000001E5
1147 1148 -3.9939960000000003E5
1148 1147 -4.0140060000000003E5
1148 1148 8.008002000000001E5
1148 1149 -3.9939960000000003E5
1149 1148 -4.0140060000000003E5
1149 1149 8.008002000000001E5
1149 1150 -3.9939960000000003E5
1150 1149 -4.0140060000000003E5
1150 1150 8.008002000000001E5
1150 1151 -3.9939960000000003E5
1151 1150 -4.0140060000000003E5
1151 1151 8.008002000000001E5
1151 1152 -3.9939960000000003E5
1152 1151 -4.0140060000000003E5
1152 1152 8.008002000000001E5
1152 1153 -3.9939960000000003E5
1153 1152 -4.0140060000000003E5
1153 1153 8.008002000000001E5
1153 1154 -3.9939960000000003E5
1154 1153 -4.0140060000000003E5
1154 1154 8.008002000000001E5
1154 1155 -3.9939960000000003E5
1155 1154 -4.0140060000000003E5
1155 1155 8.008002000000001E5
1155 1156 -3.9939960000000003E5
1156 1155 -4.0140060000000003E5
1156 1156 8.008002000000001E5
1156 1157 -3.9939960000000003E5
1157 1156 -4.0140060000000003E5
1157 1157 8.008002000000001E5
1157 1158 -3.9939960000000003E5
1158 1157 -4.0140060000000003E5
1158 1158 8.008002000000001E5
1158 1159 -3.9939960000000003E5
1159 1158 -4.0140060000000003E5
1159 1159 8.008002000000001E5
1159 1160 -3.9939960000000003E5
1160 1159 -4.0140060000000003E5
1160 1160 8.008002000000001E5
1160 1161 -3.9939960000000003E5
1161 1160 -4.0140060000000003E5
1161 1161 8.008002000000001E5
1161 1162 -3.9939960000000003E5
1162 1161 -4.0140060000000003E5
1162 1162 8.008002000000001E5
1162 1163 -3.9939960000000003E5
1163 1162 -4.0140060000000003E5
1163 1163 8.008002000000001E5
1163 1164 -3.9939960000000003E5
1164 1163 -4.0140060000000003E5
1164 1164 8.008002000000001E5
1164 1165 -3.9939960000000003E5
1165 1164 -4.0140060000000003E5
1165 1165 8.008002000000001E5
1165 1166 -3.9939960000000003E5
1166 1165 -4.0140060000000003E5
1166 1166 8.008002000000001E5
1166 1167 -3.9939960000000003E5
1167 1166 -4.0140060000000003E5
1167 1167 8.008002000000001E5
1167 1168 -3.9939960000000003E5
1168 1167 -4.0140060000000003E5
1168 1168 8.008002000000001E5
1168 1169 -3.9939960000000003E5
1169 1168 -4.0140060000000003E5
1169 1169 8.008002000000001E5
1169 1170 -3.9939960000000003E5
1170 1169 -4.0140060000000003E5
1170 1170 8.008002000000001E5
1170 1171 -3.9939960000000003E5
1171 1170 -4.0140060000000003E5
1171 1171 8.008002000000001E5
1171 1172 -3.9939960000000003E5
1172 1171 -4.0140060000000003E5
1172 1172 8.008002000000001E5
1172 1173 -3.9939960000000003E5
1173 1172 -4.0140060000000003E5
1173 1173 8.008002000000001E5
1173 1174 -3.9939960000000003E5
1174 1173 -4.0140060000000003E5
1174 1174 8.008002000000001E5
1174 1175 -3.9939960000000003E5
1175 1174 -4.0140060000000003E5
1175 1175 8.008002000000001E5
1175 1176 -3.9939960000000003E5
1176 1175 -4.0140060000000003E5
1176 1176 8.008002000000001E5
1176 1177 -3.9939960000000003E5
1177 1176 -4.0140060000000003E5
1177 1177 8.008002000000001E5
1177 1178 -3.9939960000000003E5
1178 1177 -4.0140060000000003E5
1178 1178 8.008002000000001E5
1178 1179 -3.9939960000000003E5
1179 1178 -4.0140060000000003E5
1179 1179 8.008002000000001E5
1179 1180 -3.9939960000000003E5
1180 1179 -4.0140060000000003E5
1180 1180 8.008002000000001E5
1180 1181 -3.9939960000000003E5
1181 1180 -4.0140060000000003E5
1181 1181 8.008002000000001E5
1181 1182 -3.9939960000000003E5
1182 1181 -4.0140060000000003E5
1182 1182 8.008002000000001E5
1182 1183 -3.9939960000000003E5
1183 1182 -4.0140060000000003E5
1183 1183 8.008002000000001E5
1183 1184 -3.9939960000000003E5
1184 1183 -4.0140060000000003E5
1184 1184 8.008002000000001E5
1184 1185 -3.9939960000000003E5
1185 1184 -4.0140060000000003E5
1185 1185 8.008002000000001E5
1185 1186 -3.9939960000000003E5
1186 1185 -4.0140060000000003E5
1186 1186 8.008002000000001E5
1186 1187 -3.9939960000000003E5
1187 1186 -4.0140060000000003E5
1187 1187 8.008002000000001E5
1187 1188 -3.9939960000000003E5
1188 1187 -4.0140060000000003E5
1188 1188 8.008002000000001E5
1188 1189 -3.9939960000000003E5
1189 1188 -4.0140060000000003E5
1189 1189 8.008002000000001E5
1189 1190 -3.9939960000000003E5
1190 1189 -4.0140060000000003E5
1190 1190 8.008002000000001E5
1190 1191 -3.9939960000000003E5
1191 1190 -4.0140060000000003E5
1191 1191 8.008002000000001E5
1191 1192 -3.9939960000000003E5
1192 1191 -4.0140060000000003E5
1192 1192 8.008002000000001E5
1192 1193 -3.9939960000000003E5
1193 1192 -4.0140060000000003E5
1193 1193 8.008002000000001E5
1193 1194 -3.9939960000000003E5
1194 1193 -4.0140060000000003E5
1194 1194 8.008002000000001E5
1194 1195 -3.9939960000000003E5
1195 1194 -4.0140060000000003E5
1195 1195 8.008002000000001E5
1195 1196 -3.9939960000000003E5
1196 1195 -4.0140060000000003E5
1196 1196 8.008002000000001E5
1196 1197 -3.9939960000000003E5
1197 1196 -4.0140060000000003E5
1197 1197 8.008002000000001E5
1197 1198 -3.9939960000000003E5
1198 1197 -4.0140060000000003E5
1198 1198 8.008002000000001E5
1198 1199 -3.9939960000000003E5
1199 1198 -4.0140060000000003E5
1199 1199 8.008002000000001E5
1199 1200 -3.9939960000000003E5
1200 1199 -4.0140060000000003E5
1200 1200 8.008002000000001E5
1200 1201 -3.9939960000000003E5
1201 1200 -4.0140060000000003E5
1201 1201 8.008002000000001E5
1201 1202 -3.9939960000000003E5
1202 1201 -4.0140060000000003E5
1202 1202 8.008002000000001E5
1202 1203 -3.9939960000000003E5
1203 1202 -4.0140060000000003E5
1203 1203 8.008002000000001E5
1203 1204 -3.9939960000000003E5
1204 1203 -4.0140060000000003E5
1204 1204 8.008002000000001E5
1204 1205 -3.9939960000000003E5
1205 1204 -4.0140060000000003E5
1205 1205 8.008002000000001E5
1205 1206 -3.9939960000000003E5
1206 1205 -4.0140060000000003E5
1206 1206 8.008002000000001E5
1206 1207 -3.9939960000000003E5
1207 1206 -4.0140060000000003E5
1207 1207 8.008002000000001E5
1207 1208 -3.9939960000000003E5
1208 1207 -4.0140060000000003E5
1208 1208 8.008002000000001E5
1208 1209 -3.9939960000000003E5
1209 1208 -4.0140060000000003E5
1209 1209 8.008002000000001E5
1209 1210 -3.9939960000000003E5
1210 1209 -4.0140060000000003E5
1210 1210 8.008002000000001E5
1210 1211 -3.9939960000000003E5
1211 1210 -4.0140060000000003E5
1211 1211 8.008002000000001E5
1211 1212 -3.9939960000000003E5
1212 1211 -4.0140060000000003E5
1212 1212 8.008002000000001E5
1212 1213 -3.9939960000000003E5
1213 1212 -4.0140060000000003E5
1213 1213 8.008002000000001E5
1213 1214 -3.9939960000000003E5
1214 1213 -4.0140060000000003E5
1214 1214 8.008002000000001E5
1214 1215 -3.9939960000000003E5
1215 1214 -4.0140060000000003E5
1215 1215 8.008002000000001E5
1215 1216 -3.9939960000000003E5
1216 1215 -4.0140060000000003E5
1216 1216 8.008002000000001E5
1216 1217 -3.9939960000000003E5
1217 1216 -4.0140060000000003E5
1217 1217 8.008002000000001E5
1217 1218 -3.9939960000000003E5
1218 1217 -4.0140060000000003E5
1218 1218 8.008002000000001E5
1218 1219 -3.9939960000000003E5
1219 1218 -4.0140060000000003E5
1219 1219 8.008002000000001E5
1219 1220 -3.9939960000000003E5
1220 1219 -4.0140060000000003E5
1220 1220 8.008002000000001E5
1220 1221 -3.9939960000000003E5
1221 1220 -4.0140060000000003E5
1221 1221 8.008002000000001E5
1221 1222 -3.9939960000000003E5
1222 1221 -4.0140060000000003E5
1222 1222 8.008002000000001E5
1222 1223 -3.9939960000000003E5
1223 1222 -4.0140060000000003E5
1223 1223 8.008002000000001E5
1223 1224 -3.9939960000000003E5
1224 1223 -4.0140060000000003E5
1224 1224 8.008002000000001E5
1224 1225 -3.9939960000000003E5
1225 1224 -4.0140060000000003E5
1225 1225 8.008002000000001E5
1225 1226 -3.9939960000000003E5
1226 1225 -4.0140060000000003E5
1226 1226 8.008002000000001E5
1226 1227 -3.9939960000000003E5
1227 1226 -4.0140060000000003E5
1227 1227 8.008002000000001E5
1227 1228 -3.9939960000000003E5
1228 1227 -4.0140060000000003E5
1228 1228 8.008002000000001E5
1228 1229 -3.9939960000000003E5
1229 1228 -4.0140060000000003E5
1229 1229 8.008002000000001E5
1229 1230 -3.9939960000000003E5
1230 1229 -4.0140060000000003E5
1230 1230 8.008002000000001E5
1230 1231 -3.9939960000000003E5
1231 1230 -4.0140060000000003E5
1231 1231 8.008002000000001E5
1231 1232 -3.9939960000000003E5
1232 1231 -4.0140060000000003E5
1232 1232 8.008002000000001E5
1232 1233 -3.9939960000000003E5
1233 1232 -4.0140060000000003E5
1233 1233 8.008002000000001E5
1233 1234 -3.9939960000000003E5
1234 1233 -4.0140060000000003E5
1234 1234 8.008002000000001E5
1234 1235 -3.9939960000000003E5
1235 1234 -4.0140060000000003E5
1235 1235 8.008002000000001E5
1235 1236 -3.9939960000000003E5
1236 1235 -4.0140060000000003E5
1236 1236 8.008002000000001E5
1236 1237 -3.9939960000000003E5
1237 1236 -4.0140060000000003E5
1237 1237 8.008002000000001E5
1237 1238 -3.9939960000000003E5
1238 1237 -4.0140060000000003E5
1238 1238 8.008002000000001E5
1238 1239 -3.9939960000000003E5
1239 1238 -4.0140060000000003E5
1239 1239 8.008002000000001E5
1239 1240 -3.9939960000000003E5
1240 1239 -4.0140060000000003E5
1240 1240 8.008002000000001E5
1240 1241 -3.9939960000000003E5
1241 1240 -4.0140060000000003E5
1241 1241 8.008002000000001E5
1241 1242 -3.9939960000000003E5
1242 1241 -4.0140060000000003E5
1242 1242 8.008002000000001E5
1242 1243 -3.9939960000000003E5
1243 1242 -4.0140060000000003E5
1243 1243 8.008002000000001E5
1243 1244 -3.9939960000000003E5
1244 1243 -4.0140060000000003E5
1244 1244 8.008002000000001E5
1244 1245 -3.9939960000000003E5
1245 1244 -4.0140060000000003E5
1245 1245 8.008002000000001E5
1245 1246 -3.9939960000000003E5
1246 1245 -4.0140060000000003E5
1246 1246 8.008002000000001E5
1246 1247 -3.9939960000000003E5
1247 1246 -4.0140060000000003E5
1247 1247 8.008002000000001E5
1247 1248 -3.9939960000000003E5
1248 1247 -4.0140060000000003E5
1248 1248 8.008002000000001E5
1248 1249 -3.9939960000000003E5
1249 1248 -4.0140060000000003E5
1249 1249 8.008002000000001E5
1249 1250 -3.9939960000000003E5
1250 1249 -4.0140060000000003E5
1250 1250 8.008002000000001E5
1250 1251 -3.9939960000000003E5
1251 1250 -4.0140060000000003E5
1251 1251 8.008002000000001E5
1251 1252 -3.9939960000000003E5
1252 1251 -4.0140060000000003E5
1252 1252 8.008002000000001E5
1252 1253 -3.9939960000000003E5
1253 1252 -4.0140060000000003E5
1253 1253 8.008002000000001E5
1253 1254 -3.9939960000000003E5
1254 1253 -4.0140060000000003E5
1254 1254 8.008002000000001E5
1254 1255 -3.9939960000000003E5
1255 1254 -4.0140060000000003E5
1255 1255 8.008002000000001E5
1255 1256 -3.9939960000000003E5
1256 1255 -4.0140060000000003E5
1256 1256 8.008002000000001E5
1256 1257 -3.9939960000000003E5
1257 1256 -4.0140060000000003E5
1257 1257 8.008002000000001E5
1257 1258 -3.9939960000000003E5
1258 1257 -4.0140060000000003E5
1258 1258 8.008002000000001E5
1258 1259 -3.9939960000000003E5
1259 1258 -4.0140060000000003E5
1259 1259 8.008002000000001E5
1259 1260 -3.9939960000000003E5
1260 1259 -4.0140060000000003E5
1260 1260 8.008002000000001E5
1260 1261 -3.9939960000000003E5
1261 1260 -4.0140060000000003E5
1261 1261 8.008002000000001E5
1261 1262 -3.9939960000000003E5
1262 1261 -4.0140060000000003E5
1262 1262 8.008002000000001E5
1262 1263 -3.9939960000000003E5
1263 1262 -4.0140060000000003E5
1263 1263 8.008002000000001E5
1263 1264 -3.9939960000000003E5
1264 1263 -4.0140060000000003E5
1264 1264 8.008002000000001E5
1264 1265 -3.9939960000000003E5
1265 1264 -4.0140060000000003E5
1265 1265 8.008002000000001E5
1265 1266 -3.9939960000000003E5
1266 1265 -4.0140060000000003E5
1266 1266 8.008002000000001E5
1266 1267 -3.9939960000000003E5
1267 1266 -4.0140060000000003E5
1267 1267 8.008002000000001E5
1267 1268 -3.9939960000000003E5
1268 1267 -4.0140060000000003E5
1268 1268 8.008002000000001E5
1268 1269 -3.9939960000000003E5
1269 1268 -4.0140060000000003E5
1269 1269 8.008002000000001E5
1269 1270 -3.9939960000000003E5
1270 1269 -4.0140060000000003E5
1270 1270 8.008002000000001E5
1270 1271 -3.9939960000000003E5
1271 1270 -4.0140060000000003E5
1271 1271 8.008002000000001E5
1271 1272 -3.9939960000000003E5
1272 1271 -4.0140060000000003E5
1272 1272 8.008002000000001E5
1272 1273 -3.9939960000000003E5
1273 1272 -4.0140060000000003E5
1273 1273 8.008002000000001E5
1273 1274 -3.9939960000000003E5
1274 1273 -4.0140060000000003E5
1274 1274 8.008002000000001E5
1274 1275 -3.9939960000000003E5
1275 1274 -4.0140060000000003E5
1275 1275 8.008002000000001E5
1275 1276 -3.9939960000000003E5
1276 1275 -4.0140060000000003E5
1276 1276 8.008002000000001E5
1276 1277 -3.9939960000000003E5
1277 1276 -4.0140060000000003E5
1277 1277 8.008002000000001E5
1277 1278 -3.9939960000000003E5
1278 1277 -4.0140060000000003E5
1278 1278 8.008002000000001E5
1278 1279 -3.9939960000000003E5
1279 1278 -4.0140060000000003E5
1279 1279 8.008002000000001E5
1279 1280 -3.9939960000000003E5
1280 1279 -4.0140060000000003E5
1280 1280 8.008002000000001E5
1280 1281 -3.9939960000000003E5
1281 1280 -4.0140060000000003E5
1281 1281 8.008002000000001E5
1281 1282 -3.9939960000000003E5
1282 1281 -4.0140060000000003E5
1282 1282 8.008002000000001E5
1282 1283 -3.9939960000000003E5
1283 1282 -4.0140060000000003E5
1283 1283 8.008002000000001E5
1283 1284 -3.9939960000000003E5
1284 1283 -4.0140060000000003E5
1284 1284 8.008002000000001E5
1284 1285 -3.9939960000000003E5
1285 1284 -4.0140060000000003E5
1285 1285 8.008002000000001E5
1285 1286 -3.9939960000000003E5
1286 1285 -4.0140060000000003E5
1286 1286 8.008002000000001E5
1286 1287 -3.9939960000000003E5
1287 1286 -4.0140060000000003E5
1287 1287 8.008002000000001E5
1287 1288 -3.9939960000000003E5
1288 1287 -4.0140060000000003E5
1288 1288 8.008002000000001E5
1288 1289 -3.9939960000000003E5
1289 1288 -4.0140060000000003E5
1289 1289 8.008002000000001E5
1289 1290 -3.9939960000000003E5
1290 1289 -4.0140060000000003E5
1290 1290 8.008002000000001E5
1290 1291 -3.9939960000000003E5
1291 1290 -4.0140060000000003E5
1291 1291 8.008002000000001E5
1291 1292 -3.9939960000000003E5
1292 1291 -4.0140060000000003E5
1292 1292 8.008002000000001E5
1292 1293 -3.9939960000000003E5
1293 1292 -4.0140060000000003E5
1293 1293 8.008002000000001E5
1293 1294 -3.9939960000000003E5
1294 1293 -4.0140060000000003E5
1294 1294 8.008002000000001E5
1294 1295 -3.9939960000000003E5
1295 1294 -4.0140060000000003E5
1295 1295 8.008002000000001E5
1295 1296 -3.9939960000000003E5
1296 1295 -4.0140060000000003E5
1296 1296 8.008002000000001E5
1296 1297 -3.9939960000000003E5
1297 1296 -4.0140060000000003E5
1297 1297 8.008002000000001E5
1297 1298 -3.9939960000000003E5
1298 1297 -4.0140060000000003E5
1298 1298 8.008002000000001E5
1298 1299 -3.9939960000000003E5
1299 1298 -4.0140060000000003E5
1299 1299 8.008002000000001E5
1299 1300 -3.9939960000000003E5
1300 1299 -4.0140060000000003E5
1300 1300 8.008002000000001E5
1300 1301 -3.9939960000000003E5
1301 1300 -4.0140060000000003E5
1301 1301 8.008002000000001E5
1301 1302 -3.9939960000000003E5
1302 1301 -4.0140060000000003E5
1302 1302 8.008002000000001E5
1302 1303 -3.9939960000000003E5
1303 1302 -4.0140060000000003E5
1303 1303 8.008002000000001E5
1303 1304 -3.9939960000000003E5
1304 1303 -4.0140060000000003E5
1304 1304 8.008002000000001E5
1304 1305 -3.9939960000000003E5
1305 1304 -4.0140060000000003E5
1305 1305 8.008002000000001E5
1305 1306 -3.9939960000000003E5
1306 1305 -4.0140060000000003E5
1306 1306 8.008002000000001E5
1306 1307 -3.9939960000000003E5
1307 1306 -4.0140060000000003E5
1307 1307 8.008002000000001E5
1307 1308 -3.9939960000000003E5
1308 1307 -4.0140060000000003E5
1308 1308 8.008002000000001E5
1308 1309 -3.9939960000000003E5
1309 1308 -4.0140060000000003E5
1309 1309 8.008002000000001E5
1309 1310 -3.9939960000000003E5
1310 1309 -4.0140060000000003E5
1310 1310 8.008002000000001E5
1310 1311 -3.9939960000000003E5
1311 1310 -4.0140060000000003E5
1311 1311 8.008002000000001E5
1311 1312 -3.9939960000000003E5
1312 1311 -4.0140060000000003E5
1312 1312 8.008002000000001E5
1312 1313 -3.9939960000000003E5
1313 1312 -4.0140060000000003E5
1313 1313 8.008002000000001E5
1313 1314 -3.9939960000000003E5
1314 1313 -4.0140060000000003E5
1314 1314 8.008002000000001E5
1314 1315 -3.9939960000000003E5
1315 1314 -4.0140060000000003E5
1315 1315 8.008002000000001E5
1315 1316 -3.9939960000000003E5
1316 1315 -4.0140060000000003E5
1316 1316 8.008002000000001E5
1316 1317 -3.9939960000000003E5
1317 1316 -4.0140060000000003E5
1317 1317 8.008002000000001E5
1317 1318 -3.9939960000000003E5
1318 1317 -4.0140060000000003E5
1318 1318 8.008002000000001E5
1318 1319 -3.9939960000000003E5
1319 1318 -4.0140060000000003E5
1319 1319 8.008002000000001E5
1319 1320 -3.9939960000000003E5
1320 1319 -4.0140060000000003E5
1320 1320 8.008002000000001E5
1320 1321 -3.9939960000000003E5
1321 1320 -4.0140060000000003E5
1321 1321 8.008002000000001E5
1321 1322 -3.9939960000000003E5
1322 1321 -4.0140060000000003E5
1322 1322 8.008002000000001E5
1322 1323 -3.9939960000000003E5
1323 1322 -4.0140060000000003E5
1323 1323 8.008002000000001E5
1323 1324 -3.9939960000000003E5
1324 1323 -4.0140060000000003E5
1324 1324 8.008002000000001E5
1324 1325 -3.9939960000000003E5
1325 1324 -4.0140060000000003E5
1325 1325 8.008002000000001E5
1325 1326 -3.9939960000000003E5
1326 1325 -4.0140060000000003E5
1326 1326 8.008002000000001E5
1326 1327 -3.9939960000000003E5
1327 1326 -4.0140060000000003E5
1327 1327 8.008002000000001E5
1327 1328 -3.9939960000000003E5
1328 1327 -4.0140060000000003E5
1328 1328 8.008002000000001E5
1328 1329 -3.9939960000000003E5
1329 1328 -4.0140060000000003E5
1329 1329 8.008002000000001E5
1329 1330 -3.9939960000000003E5
1330 1329 -4.0140060000000003E5
1330 1330 8.008002000000001E5
1330 1331 -3.9939960000000003E5
1331 1330 -4.0140060000000003E5
1331 1331 8.008002000000001E5
1331 1332 -3.9939960000000003E5
1332 1331 -4.0140060000000003E5
1332 1332 8.008002000000001E5
1332 1333 -3.9939960000000003E5
1333 1332 -4.0140060000000003E5
1333 1333 8.008002000000001E5
1333 1334 -3.9939960000000003E5
1334 1333 -4.0140060000000003E5
1334 1334 8.008002000000001E5
1334 1335 -3.9939960000000003E5
1335 1334 -4.0140060000000003E5
1335 1335 8.008002000000001E5
1335 1336 -3.9939960000000003E5
1336 1335 -4.0140060000000003E5
1336 1336 8.008002000000001E5
1336 1337 -3.9939960000000003E5
1337 1336 -4.0140060000000003E5
1337 1337 8.008002000000001E5
1337 1338 -3.9939960000000003E5
1338 1337 -4.0140060000000003E5
1338 1338 8.008002000000001E5
1338 1339 -3.9939960000000003E5
1339 1338 -4.0140060000000003E5
1339 1339 8.008002000000001E5
1339 1340 -3.9939960000000003E5
1340 1339 -4.0140060000000003E5
1340 1340 8.008002000000001E5
1340 1341 -3.9939960000000003E5
1341 1340 -4.0140060000000003E5
1341 1341 8.008002000000001E5
1341 1342 -3.9939960000000003E5
1342 1341 -4.0140060000000003E5
1342 1342 8.008002000000001E5
1342 1343 -3.9939960000000003E5
1343 1342 -4.0140060000000003E5
1343 1343 8.008002000000001E5
1343 1344 -3.9939960000000003E5
1344 1343 -4.0140060000000003E5
1344 1344 8.008002000000001E5
1344 1345 -3.9939960000000003E5
1345 1344 -4.0140060000000003E5
1345 1345 8.008002000000001E5
1345 1346 -3.9939960000000003E5
1346 1345 -4.0140060000000003E5
1346 1346 8.008002000000001E5
1346 1347 -3.9939960000000003E5
1347 1346 -4.0140060000000003E5
1347 1347 8.008002000000001E5
1347 1348 -3.9939960000000003E5
1348 1347 -4.0140060000000003E5
1348 1348 8.008002000000001E5
1348 1349 -3.9939960000000003E5
1349 1348 -4.0140060000000003E5
1349 1349 8.008002000000001E5
1349 1350 -3.9939960000000003E5
1350 1349 -4.0140060000000003E5
1350 1350 8.008002000000001E5
1350 1351 -3.9939960000000003E5
1351 1350 -4.0140060000000003E5
1351 1351 8.008002000000001E5
1351 1352 -3.9939960000000003E5
1352 1351 -4.0140060000000003E5
1352 1352 8.008002000000001E5
1352 1353 -3.9939960000000003E5
1353 1352 -4.0140060000000003E5
1353 1353 8.008002000000001E5
1353 1354 -3.9939960000000003E5
1354 1353 -4.0140060000000003E5
1354 1354 8.008002000000001E5
1354 1355 -3.9939960000000003E5
1355 1354 -4.0140060000000003E5
1355 1355 8.008002000000001E5
1355 1356 -3.9939960000000003E5
1356 1355 -4.0140060000000003E5
1356 1356 8.008002000000001E5
1356 1357 -3.9939960000000003E5
1357 1356 -4.0140060000000003E5
1357 1357 8.008002000000001E5
1357 1358 -3.9939960000000003E5
1358 1357 -4.0140060000000003E5
1358 1358 8.008002000000001E5
1358 1359 -3.9939960000000003E5
1359 1358 -4.0140060000000003E5
1359 1359 8.008002000000001E5
1359 1360 -3.9939960000000003E5
1360 1359 -4.0140060000000003E5
1360 1360 8.008002000000001E5
1360 1361 -3.9939960000000003E5
1361 1360 -4.0140060000000003E5
1361 1361 8.008002000000001E5
1361 1362 -3.9939960000000003E5
1362 1361 -4.0140060000000003E5
1362 1362 8.008002000000001E5
1362 1363 -3.9939960000000003E5
1363 1362 -4.0140060000000003E5
1363 1363 8.008002000000001E5
1363 1364 -3.9939960000000003E5
1364 1363 -4.0140060000000003E5
1364 1364 8.008002000000001E5
1364 1365 -3.9939960000000003E5
1365 1364 -4.0140060000000003E5
1365 1365 8.008002000000001E5
1365 1366 -3.9939960000000003E5
1366 1365 -4.0140060000000003E5
1366 1366 8.008002000000001E5
1366 1367 -3.9939960000000003E5
1367 1366 -4.0140060000000003E5
1367 1367 8.008002000000001E5
1367 1368 -3.9939960000000003E5
1368 1367 -4.0140060000000003E5
1368 1368 8.008002000000001E5
1368 1369 -3.9939960000000003E5
1369 1368 -4.0140060000000003E5
1369 1369 8.008002000000001E5
1369 1370 -3.9939960000000003E5
1370 1369 -4.0140060000000003E5
1370 1370 8.008002000000001E5
1370 1371 -3.9939960000000003E5
1371 1370 -4.0140060000000003E5
1371 1371 8.008002000000001E5
1371 1372 -3.9939960000000003E5
1372 1371 -4.0140060000000003E5
1372 1372 8.008002000000001E5
1372 1373 -3.9939960000000003E5
1373 1372 -4.0140060000000003E5
1373 1373 8.008002000000001E5
1373 1374 -3.9939960000000003E5
1374 1373 -4.0140060000000003E5
1374 1374 8.008002000000001E5
1374 1375 -3.9939960000000003E5
1375 1374 -4.0140060000000003E5
1375 1375 8.008002000000001E5
1375 1376 -3.9939960000000003E5
1376 1375 -4.0140060000000003E5
1376 1376 8.008002000000001E5
1376 1377 -3.9939960000000003E5
1377 1376 -4.0140060000000003E5
1377 1377 8.008002000000001E5
1377 1378 -3.9939960000000003E5
1378 1377 -4.0140060000000003E5
1378 1378 8.008002000000001E5
1378 1379 -3.9939960000000003E5
1379 1378 -4.0140060000000003E5
1379 1379 8.008002000000001E5
1379 1380 -3.9939960000000003E5
1380 1379 -4.0140060000000003E5
1380 1380 8.008002000000001E5
1380 1381 -3.9939960000000003E5
1381 1380 -4.0140060000000003E5
1381 1381 8.008002000000001E5
1381 1382 -3.9939960000000003E5
1382 1381 -4.0140060000000003E5
1382 1382 8.008002000000001E5
1382 1383 -3.9939960000000003E5
1383 1382 -4.0140060000000003E5
1383 1383 8.008002000000001E5
1383 1384 -3.9939960000000003E5
1384 1383 -4.0140060000000003E5
1384 1384 8.008002000000001E5
1384 1385 -3.9939960000000003E5
1385 1384 -4.0140060000000003E5
1385 1385 8.008002000000001E5
1385 1386 -3.9939960000000003E5
1386 1385 -4.0140060000000003E5
1386 1386 8.008002000000001E5
1386 1387 -3.9939960000000003E5
1387 1386 -4.0140060000000003E5
1387 1387 8.008002000000001E5
1387 1388 -3.9939960000000003E5
1388 1387 -4.0140060000000003E5
1388 1388 8.008002000000001E5
1388 1389 -3.9939960000000003E5
1389 1388 -4.0140060000000003E5
1389 1389 8.008002000000001E5
1389 1390 -3.9939960000000003E5
1390 1389 -4.0140060000000003E5
1390 1390 8.008002000000001E5
1390 1391 -3.9939960000000003E5
1391 1390 -4.0140060000000003E5
1391 1391 8.008002000000001E5
1391 1392 -3.9939960000000003E5
1392 1391 -4.0140060000000003E5
1392 1392 8.008002000000001E5
1392 1393 -3.9939960000000003E5
1393 1392 -4.0140060000000003E5
1393 1393 8.008002000000001E5
1393 1394 -3.9939960000000003E5
1394 1393 -4.0140060000000003E5
1394 1394 8.008002000000001E5
1394 1395 -3.9939960000000003E5
1395 1394 -4.0140060000000003E5
1395 1395 8.008002000000001E5
1395 1396 -3.9939960000000003E5
1396 1395 -4.0140060000000003E5
1396 1396 8.008002000000001E5
1396 1397 -3.9939960000000003E5
1397 1396 -4.0140060000000003E5
1397 1397 8.008002000000001E5
1397 1398 -3.9939960000000003E5
1398 1397 -4.0140060000000003E5
1398 1398 8.008002000000001E5
1398 1399 -3.9939960000000003E5
1399 1398 -4.0140060000000003E5
1399 1399 8.008002000000001E5
1399 1400 -3.9939960000000003E5
1400 1399 -4.0140060000000003E5
1400 1400 8.008002000000001E5
1400 1401 -3.9939960000000003E5
1401 1400 -4.0140060000000003E5
1401 1401 8.008002000000001E5
1401 1402 -3.9939960000000003E5
1402 1401 -4.0140060000000003E5
1402 1402 8.008002000000001E5
1402 1403 -3.9939960000000003E5
1403 1402 -4.0140060000000003E5
1403 1403 8.008002000000001E5
1403 1404 -3.9939960000000003E5
1404 1403 -4.0140060000000003E5
1404 1404 8.008002000000001E5
1404 1405 -3.9939960000000003E5
1405 1404 -4.0140060000000003E5
1405 1405 8.008002000000001E5
1405 1406 -3.9939960000000003E5
1406 1405 -4.0140060000000003E5
1406 1406 8.008002000000001E5
1406 1407 -3.9939960000000003E5
1407 1406 -4.0140060000000003E5
1407 1407 8.008002000000001E5
1407 1408 -3.9939960000000003E5
1408 1407 -4.0140060000000003E5
1408 1408 8.008002000000001E5
1408 1409 -3.9939960000000003E5
1409 1408 -4.0140060000000003E5
1409 1409 8.008002000000001E5
1409 1410 -3.9939960000000003E5
1410 1409 -4.0140060000000003E5
1410 1410 8.008002000000001E5
1410 1411 -3.9939960000000003E5
1411 1410 -4.0140060000000003E5
1411 1411 8.008002000000001E5
1411 1412 -3.9939960000000003E5
1412 1411 -4.0140060000000003E5
1412 1412 8.008002000000001E5
1412 1413 -3.9939960000000003E5
1413 1412 -4.0140060000000003E5
1413 1413 8.008002000000001E5
1413 1414 -3.9939960000000003E5
1414 1413 -4.0140060000000003E5
1414 1414 8.008002000000001E5
1414 1415 -3.9939960000000003E5
1415 1414 -4.0140060000000003E5
1415 1415 8.008002000000001E5
1415 1416 -3.9939960000000003E5
1416 1415 -4.0140060000000003E5
1416 1416 8.008002000000001E5
1416 1417 -3.9939960000000003E5
1417 1416 -4.0140060000000003E5
1417 1417 8.008002000000001E5
1417 1418 -3.9939960000000003E5
1418 1417 -4.0140060000000003E5
1418 1418 8.008002000000001E5
1418 1419 -3.9939960000000003E5
1419 1418 -4.0140060000000003E5
1419 1419 8.008002000000001E5
1419 1420 -3.9939960000000003E5
1420 1419 -4.0140060000000003E5
1420 1420 8.008002000000001E5
1420 1421 -3.9939960000000003E5
1421 1420 -4.0140060000000003E5
1421 1421 8.008002000000001E5
1421 1422 -3.9939960000000003E5
1422 1421 -4.0140060000000003E5
1422 1422 8.008002000000001E5
1422 1423 -3.9939960000000003E5
1423 1422 -4.0140060000000003E5
1423 1423 8.008002000000001E5
1423 1424 -3.9939960000000003E5
1424 1423 -4.0140060000000003E5
1424 1424 8.008002000000001E5
1424 1425 -3.9939960000000003E5
1425 1424 -4.0140060000000003E5
1425 1425 8.008002000000001E5
1425 1426 -3.9939960000000003E5
1426 1425 -4.0140060000000003E5
1426 1426 8.008002000000001E5
1426 1427 -3.9939960000000003E5
1427 1426 -4.0140060000000003E5
1427 1427 8.008002000000001E5
1427 1428 -3.9939960000000003E5
1428 1427 -4.0140060000000003E5
1428 1428 8.008002000000001E5
1428 1429 -3.9939960000000003E5
1429 1428 -4.0140060000000003E5
1429 1429 8.008002000000001E5
1429 1430 -3.9939960000000003E5
1430 1429 -4.0140060000000003E5
1430 1430 8.008002000000001E5
1430 1431 -3.9939960000000003E5
1431 1430 -4.0140060000000003E5
1431 1431 8.008002000000001E5
1431 1432 -3.9939960000000003E5
1432 1431 -4.0140060000000003E5
1432 1432 8.008002000000001E5
1432 1433 -3.9939960000000003E5
1433 1432 -4.0140060000000003E5
1433 1433 8.008002000000001E5
1433 1434 -3.9939960000000003E5
1434 1433 -4.0140060000000003E5
1434 1434 8.008002000000001E5
1434 1435 -3.9939960000000003E5
1435 1434 -4.0140060000000003E5
1435 1435 8.008002000000001E5
1435 1436 -3.9939960000000003E5
1436 1435 -4.0140060000000003E5
1436 1436 8.008002000000001E5
1436 1437 -3.9939960000000003E5
1437 1436 -4.0140060000000003E5
1437 1437 8.008002000000001E5
1437 1438 -3.9939960000000003E5
1438 1437 -4.0140060000000003E5
1438 1438 8.008002000000001E5
1438 1439 -3.9939960000000003E5
1439 1438 -4.0140060000000003E5
1439 1439 8.008002000000001E5
1439 1440 -3.9939960000000003E5
1440 1439 -4.0140060000000003E5
1440 1440 8.008002000000001E5
1440 1441 -3.9939960000000003E5
1441 1440 -4.0140060000000003E5
1441 1441 8.008002000000001E5
1441 1442 -3.9939960000000003E5
1442 1441 -4.0140060000000003E5
1442 1442 8.008002000000001E5
1442 1443 -3.9939960000000003E5
1443 1442 -4.0140060000000003E5
1443 1443 8.008002000000001E5
1443 1444 -3.9939960000000003E5
1444 1443 -4.0140060000000003E5
1444 1444 8.008002000000001E5
1444 1445 -3.9939960000000003E5
1445 1444 -4.0140060000000003E5
1445 1445 8.008002000000001E5
1445 1446 -3.9939960000000003E5
1446 1445 -4.0140060000000003E5
1446 1446 8.008002000000001E5
1446 1447 -3.9939960000000003E5
1447 1446 -4.0140060000000003E5
1447 1447 8.008002000000001E5
1447 1448 -3.9939960000000003E5
1448 1447 -4.0140060000000003E5
1448 1448 8.008002000000001E5
1448 1449 -3.9939960000000003E5
1449 1448 -4.0140060000000003E5
1449 1449 8.008002000000001E5
1449 1450 -3.9939960000000003E5
1450 1449 -4.0140060000000003E5
1450 1450 8.008002000000001E5
1450 1451 -3.9939960000000003E5
1451 1450 -4.0140060000000003E5
1451 1451 8.008002000000001E5
1451 1452 -3.9939960000000003E5
1452 1451 -4.0140060000000003E5
1452 1452 8.008002000000001E5
1452 1453 -3.9939960000000003E5
1453 1452 -4.0140060000000003E5
1453 1453 8.008002000000001E5
1453 1454 -3.9939960000000003E5
1454 1453 -4.0140060000000003E5
1454 1454 8.008002000000001E5
1454 1455 -3.9939960000000003E5
1455 1454 -4.0140060000000003E5
1455 1455 8.008002000000001E5
1455 1456 -3.9939960000000003E5
1456 1455 -4.0140060000000003E5
1456 1456 8.008002000000001E5
1456 1457 -3.9939960000000003E5
1457 1456 -4.0140060000000003E5
1457 1457 8.008002000000001E5
1457 1458 -3.9939960000000003E5
1458 1457 -4.0140060000000003E5
1458 1458 8.008002000000001E5
1458 1459 -3.9939960000000003E5
1459 1458 -4.0140060000000003E5
1459 1459 8.008002000000001E5
1459 1460 -3.9939960000000003E5
1460 1459 -4.0140060000000003E5
1460 1460 8.008002000000001E5
1460 1461 -3.9939960000000003E5
1461 1460 -4.0140060000000003E5
1461 1461 8.008002000000001E5
1461 1462 -3.9939960000000003E5
1462 1461 -4.0140060000000003E5
1462 1462 8.008002000000001E5
1462 1463 -3.9939960000000003E5
1463 1462 -4.0140060000000003E5
1463 1463 8.008002000000001E5
1463 1464 -3.9939960000000003E5
1464 1463 -4.0140060000000003E5
1464 1464 8.008002000000001E5
1464 1465 -3.9939960000000003E5
1465 1464 -4.0140060000000003E5
1465 1465 8.008002000000001E5
1465 1466 -3.9939960000000003E5
1466 1465 -4.0140060000000003E5
1466 1466 8.008002000000001E5
1466 1467 -3.9939960000000003E5
1467 1466 -4.0140060000000003E5
1467 1467 8.008002000000001E5
1467 1468 -3.9939960000000003E5
1468 1467 -4.0140060000000003E5
1468 1468 8.008002000000001E5
1468 1469 -3.9939960000000003E5
1469 1468 -4.0140060000000003E5
1469 1469 8.008002000000001E5
1469 1470 -3.9939960000000003E5
1470 1469 -4.0140060000000003E5
1470 1470 8.008002000000001E5
1470 1471 -3.9939960000000003E5
1471 1470 -4.0140060000000003E5
1471 1471 8.008002000000001E5
1471 1472 -3.9939960000000003E5
1472 1471 -4.0140060000000003E5
1472 1472 8.008002000000001E5
1472 1473 -3.9939960000000003E5
1473 1472 -4.0140060000000003E5
1473 1473 8.008002000000001E5
1473 1474 -3.9939960000000003E5
1474 1473 -4.0140060000000003E5
1474 1474 8.008002000000001E5
1474 1475 -3.9939960000000003E5
1475 1474 -4.0140060000000003E5
1475 1475 8.008002000000001E5
1475 1476 -3.9939960000000003E5
1476 1475 -4.0140060000000003E5
1476 1476 8.008002000000001E5
1476 1477 -3.9939960000000003E5
1477 1476 -4.0140060000000003E5
1477 1477 8.008002000000001E5
1477 1478 -3.9939960000000003E5
1478 1477 -4.0140060000000003E5
1478 1478 8.008002000000001E5
1478 1479 -3.9939960000000003E5
1479 1478 -4.0140060000000003E5
1479 1479 8.008002000000001E5
1479 1480 -3.9939960000000003E5
1480 1479 -4.0140060000000003E5
1480 1480 8.008002000000001E5
1480 1481 -3.9939960000000003E5
1481 1480 -4.0140060000000003E5
1481 1481 8.008002000000001E5
1481 1482 -3.9939960000000003E5
1482 1481 -4.0140060000000003E5
1482 1482 8.008002000000001E5
1482 1483 -3.9939960000000003E5
1483 1482 -4.0140060000000003E5
1483 1483 8.008002000000001E5
1483 1484 -3.9939960000000003E5
1484 1483 -4.0140060000000003E5
1484 1484 8.008002000000001E5
1484 1485 -3.9939960000000003E5
1485 1484 -4.0140060000000003E5
1485 1485 8.008002000000001E5
1485 1486 -3.9939960000000003E5
1486 1485 -4.0140060000000003E5
1486 1486 8.008002000000001E5
1486 1487 -3.9939960000000003E5
1487 1486 -4.0140060000000003E5
1487 1487 8.008002000000001E5
1487 1488 -3.9939960000000003E5
1488 1487 -4.0140060000000003E5
1488 1488 8.008002000000001E5
1488 1489 -3.9939960000000003E5
1489 1488 -4.0140060000000003E5
1489 1489 8.008002000000001E5
1489 1490 -3.9939960000000003E5
1490 1489 -4.0140060000000003E5
1490 1490 8.008002000000001E5
1490 1491 -3.9939960000000003E5
1491 1490 -4.0140060000000003E5
1491 1491 8.008002000000001E5
1491 1492 -3.9939960000000003E5
1492 1491 -4.0140060000000003E5
1492 1492 8.008002000000001E5
1492 1493 -3.9939960000000003E5
1493 1492 -4.0140060000000003E5
1493 1493 8.008002000000001E5
1493 1494 -3.9939960000000003E5
1494 1493 -4.0140060000000003E5
1494 1494 8.008002000000001E5
1494 1495 -3.9939960000000003E5
1495 1494 -4.0140060000000003E5
1495 1495 8.008002000000001E5
1495 1496 -3.9939960000000003E5
1496 1495 -4.0140060000000003E5
1496 1496 8.008002000000001E5
1496 1497 -3.9939960000000003E5
1497 1496 -4.0140060000000003E5
1497 1497 8.008002000000001E5
1497 1498 -3.9939960000000003E5
1498 1497 -4.0140060000000003E5
1498 1498 8.008002000000001E5
1498 1499 -3.9939960000000003E5
1499 1498 -4.0140060000000003E5
1499 1499 8.008002000000001E5
1499 1500 -3.9939960000000003E5
1500 1499 -4.0140060000000003E5
1500 1500 8.008002000000001E5
1500 1501 -3.9939960000000003E5
1501 1500 -4.0140060000000003E5
1501 1501 8.008002000000001E5
1501 1502 -3.9939960000000003E5
1502 1501 -4.0140060000000003E5
1502 1502 8.008002000000001E5
1502 1503 -3.9939960000000003E5
1503 1502 -4.0140060000000003E5
1503 1503 8.008002000000001E5
1503 1504 -3.9939960000000003E5
1504 1503 -4.0140060000000003E5
1504 1504 8.008002000000001E5
1504 1505 -3.9939960000000003E5
1505 1504 -4.0140060000000003E5
1505 1505 8.008002000000001E5
1505 1506 -3.9939960000000003E5
1506 1505 -4.0140060000000003E5
1506 1506 8.008002000000001E5
1506 1507 -3.9939960000000003E5
1507 1506 -4.0140060000000003E5
1507 1507 8.008002000000001E5
1507 1508 -3.9939960000000003E5
1508 1507 -4.0140060000000003E5
1508 1508 8.008002000000001E5
1508 1509 -3.9939960000000003E5
1509 1508 -4.0140060000000003E5
1509 1509 8.008002000000001E5
1509 1510 -3.9939960000000003E5
1510 1509 -4.0140060000000003E5
1510 1510 8.008002000000001E5
1510 1511 -3.9939960000000003E5
1511 1510 -4.0140060000000003E5
1511 1511 8.008002000000001E5
1511 1512 -3.9939960000000003E5
1512 1511 -4.0140060000000003E5
1512 1512 8.008002000000001E5
1512 1513 -3.9939960000000003E5
1513 1512 -4.0140060000000003E5
1513 1513 8.008002000000001E5
1513 1514 -3.9939960000000003E5
1514 1513 -4.0140060000000003E5
1514 1514 8.008002000000001E5
1514 1515 -3.9939960000000003E5
1515 1514 -4.0140060000000003E5
1515 1515 8.008002000000001E5
1515 1516 -3.9939960000000003E5
1516 1515 -4.0140060000000003E5
1516 1516 8.008002000000001E5
1516 1517 -3.9939960000000003E5
1517 1516 -4.0140060000000003E5
1517 1517 8.008002000000001E5
1517 1518 -3.9939960000000003E5
1518 1517 -4.0140060000000003E5
1518 1518 8.008002000000001E5
1518 1519 -3.9939960000000003E5
1519 1518 -4.0140060000000003E5
1519 1519 8.008002000000001E5
1519 1520 -3.9939960000000003E5
1520 1519 -4.0140060000000003E5
1520 1520 8.008002000000001E5
1520 1521 -3.9939960000000003E5
1521 1520 -4.0140060000000003E5
1521 1521 8.008002000000001E5
1521 1522 -3.9939960000000003E5
1522 1521 -4.0140060000000003E5
1522 1522 8.008002000000001E5
1522 1523 -3.9939960000000003E5
1523 1522 -4.0140060000000003E5
1523 1523 8.008002000000001E5
1523 1524 -3.9939960000000003E5
1524 1523 -4.0140060000000003E5
1524 1524 8.008002000000001E5
1524 1525 -3.9939960000000003E5
1525 1524 -4.0140060000000003E5
1525 1525 8.008002000000001E5
1525 1526 -3.9939960000000003E5
1526 1525 -4.0140060000000003E5
1526 1526 8.008002000000001E5
1526 1527 -3.9939960000000003E5
1527 1526 -4.0140060000000003E5
1527 1527 8.008002000000001E5
1527 1528 -3.9939960000000003E5
1528 1527 -4.0140060000000003E5
1528 1528 8.008002000000001E5
1528 1529 -3.9939960000000003E5
1529 1528 -4.0140060000000003E5
1529 1529 8.008002000000001E5
1529 1530 -3.9939960000000003E5
1530 1529 -4.0140060000000003E5
1530 1530 8.008002000000001E5
1530 1531 -3.9939960000000003E5
1531 1530 -4.0140060000000003E5
1531 1531 8.008002000000001E5
1531 1532 -3.9939960000000003E5
1532 1531 -4.0140060000000003E5
1532 1532 8.008002000000001E5
1532 1533 -3.9939960000000003E5
1533 1532 -4.0140060000000003E5
1533 1533 8.008002000000001E5
1533 1534 -3.9939960000000003E5
1534 1533 -4.0140060000000003E5
1534 1534 8.008002000000001E5
1534 1535 -3.9939960000000003E5
1535 1534 -4.0140060000000003E5
1535 1535 8.008002000000001E5
1535 1536 -3.9939960000000003E5
1536 1535 -4.0140060000000003E5
1536 1536 8.008002000000001E5
1536 1537 -3.9939960000000003E5
1537 1536 -4.0140060000000003E5
1537 1537 8.008002000000001E5
1537 1538 -3.9939960000000003E5
1538 1537 -4.0140060000000003E5
1538 1538 8.008002000000001E5
1538 1539 -3.9939960000000003E5
1539 1538 -4.0140060000000003E5
1539 1539 8.008002000000001E5
1539 1540 -3.9939960000000003E5
1540 1539 -4.0140060000000003E5
1540 1540 8.008002000000001E5
1540 1541 -3.9939960000000003E5
1541 1540 -4.0140060000000003E5
1541 1541 8.008002000000001E5
1541 1542 -3.9939960000000003E5
1542 1541 -4.0140060000000003E5
1542 1542 8.008002000000001E5
1542 1543 -3.9939960000000003E5
1543 1542 -4.0140060000000003E5
1543 1543 8.008002000000001E5
1543 1544 -3.9939960000000003E5
1544 1543 -4.0140060000000003E5
1544 1544 8.008002000000001E5
1544 1545 -3.9939960000000003E5
1545 1544 -4.0140060000000003E5
1545 1545 8.008002000000001E5
1545 1546 -3.9939960000000003E5
1546 1545 -4.0140060000000003E5
1546 1546 8.008002000000001E5
1546 1547 -3.9939960000000003E5
1547 1546 -4.0140060000000003E5
1547 1547 8.008002000000001E5
1547 1548 -3.9939960000000003E5
1548 1547 -4.0140060000000003E5
1548 1548 8.008002000000001E5
1548 1549 -3.9939960000000003E5
1549 1548 -4.0140060000000003E5
1549 1549 8.008002000000001E5
1549 1550 -3.9939960000000003E5
1550 1549 -4.0140060000000003E5
1550 1550 8.008002000000001E5
1550 1551 -3.9939960000000003E5
1551 1550 -4.0140060000000003E5
1551 1551 8.008002000000001E5
1551 1552 -3.9939960000000003E5
1552 1551 -4.0140060000000003E5
1552 1552 8.008002000000001E5
1552 1553 -3.9939960000000003E5
1553 1552 -4.0140060000000003E5
1553 1553 8.008002000000001E5
1553 1554 -3.9939960000000003E5
1554 1553 -4.0140060000000003E5
1554 1554 8.008002000000001E5
1554 1555 -3.9939960000000003E5
1555 1554 -4.0140060000000003E5
1555 1555 8.008002000000001E5
1555 1556 -3.9939960000000003E5
1556 1555 -4.0140060000000003E5
1556 1556 8.008002000000001E5
1556 1557 -3.9939960000000003E5
1557 1556 -4.0140060000000003E5
1557 1557 8.008002000000001E5
1557 1558 -3.9939960000000003E5
1558 1557 -4.0140060000000003E5
1558 1558 8.008002000000001E5
1558 1559 -3.9939960000000003E5
1559 1558 -4.0140060000000003E5
1559 1559 8.008002000000001E5
1559 1560 -3.9939960000000003E5
1560 1559 -4.0140060000000003E5
1560 1560 8.008002000000001E5
1560 1561 -3.9939960000000003E5
1561 1560 -4.0140060000000003E5
1561 1561 8.008002000000001E5
1561 1562 -3.9939960000000003E5
1562 1561 -4.0140060000000003E5
1562 1562 8.008002000000001E5
1562 1563 -3.9939960000000003E5
1563 1562 -4.0140060000000003E5
1563 1563 8.008002000000001E5
1563 1564 -3.9939960000000003E5
1564 1563 -4.0140060000000003E5
1564 1564 8.008002000000001E5
1564 1565 -3.9939960000000003E5
1565 1564 -4.0140060000000003E5
1565 1565 8.008002000000001E5
1565 1566 -3.9939960000000003E5
1566 1565 -4.0140060000000003E5
1566 1566 8.008002000000001E5
1566 1567 -3.9939960000000003E5
1567 1566 -4.0140060000000003E5
1567 1567 8.008002000000001E5
1567 1568 -3.9939960000000003E5
1568 1567 -4.0140060000000003E5
1568 1568 8.008002000000001E5
1568 1569 -3.9939960000000003E5
1569 1568 -4.0140060000000003E5
1569 1569 8.008002000000001E5
1569 1570 -3.9939960000000003E5
1570 1569 -4.0140060000000003E5
1570 1570 8.008002000000001E5
1570 1571 -3.9939960000000003E5
1571 1570 -4.0140060000000003E5
1571 1571 8.008002000000001E5
1571 1572 -3.9939960000000003E5
1572 1571 -4.0140060000000003E5
1572 1572 8.008002000000001E5
1572 1573 -3.9939960000000003E5
1573 1572 -4.0140060000000003E5
1573 1573 8.008002000000001E5
1573 1574 -3.9939960000000003E5
1574 1573 -4.0140060000000003E5
1574 1574 8.008002000000001E5
1574 1575 -3.9939960000000003E5
1575 1574 -4.0140060000000003E5
1575 1575 8.008002000000001E5
1575 1576 -3.9939960000000003E5
1576 1575 -4.0140060000000003E5
1576 1576 8.008002000000001E5
1576 1577 -3.9939960000000003E5
1577 1576 -4.0140060000000003E5
1577 1577 8.008002000000001E5
1577 1578 -3.9939960000000003E5
1578 1577 -4.0140060000000003E5
1578 1578 8.008002000000001E5
1578 1579 -3.9939960000000003E5
1579 1578 -4.0140060000000003E5
1579 1579 8.008002000000001E5
1579 1580 -3.9939960000000003E5
1580 1579 -4.0140060000000003E5
1580 1580 8.008002000000001E5
1580 1581 -3.9939960000000003E5
1581 1580 -4.0140060000000003E5
1581 1581 8.008002000000001E5
1581 1582 -3.9939960000000003E5
1582 1581 -4.0140060000000003E5
1582 1582 8.008002000000001E5
1582 1583 -3.9939960000000003E5
1583 1582 -4.0140060000000003E5
1583 1583 8.008002000000001E5
1583 1584 -3.9939960000000003E5
1584 1583 -4.0140060000000003E5
1584 1584 8.008002000000001E5
1584 1585 -3.9939960000000003E5
1585 1584 -4.0140060000000003E5
1585 1585 8.008002000000001E5
1585 1586 -3.9939960000000003E5
1586 1585 -4.0140060000000003E5
1586 1586 8.008002000000001E5
1586 1587 -3.9939960000000003E5
1587 1586 -4.0140060000000003E5
1587 1587 8.008002000000001E5
1587 1588 -3.9939960000000003E5
1588 1587 -4.0140060000000003E5
1588 1588 8.008002000000001E5
1588 1589 -3.9939960000000003E5
1589 1588 -4.0140060000000003E5
1589 1589 8.008002000000001E5
1589 1590 -3.9939960000000003E5
1590 1589 -4.0140060000000003E5
1590 1590 8.008002000000001E5
1590 1591 -3.9939960000000003E5
1591 1590 -4.0140060000000003E5
1591 1591 8.008002000000001E5
1591 1592 -3.9939960000000003E5
1592 1591 -4.0140060000000003E5
1592 1592 8.008002000000001E5
1592 1593 -3.9939960000000003E5
1593 1592 -4.0140060000000003E5
1593 1593 8.008002000000001E5
1593 1594 -3.9939960000000003E5
1594 1593 -4.0140060000000003E5
1594 1594 8.008002000000001E5
1594 1595 -3.9939960000000003E5
1595 1594 -4.0140060000000003E5
1595 1595 8.008002000000001E5
1595 1596 -3.9939960000000003E5
1596 1595 -4.0140060000000003E5
1596 1596 8.008002000000001E5
1596 1597 -3.9939960000000003E5
1597 1596 -4.0140060000000003E5
1597 1597 8.008002000000001E5
1597 1598 -3.9939960000000003E5
1598 1597 -4.0140060000000003E5
1598 1598 8.008002000000001E5
1598 1599 -3.9939960000000003E5
1599 1598 -4.0140060000000003E5
1599 1599 8.008002000000001E5
1599 1600 -3.9939960000000003E5
1600 1599 -4.0140060000000003E5
1600 1600 8.008002000000001E5
1600 1601 -3.9939960000000003E5
1601 1600 -4.0140060000000003E5
1601 1601 8.008002000000001E5
1601 1602 -3.9939960000000003E5
1602 1601 -4.0140060000000003E5
1602 1602 8.008002000000001E5
1602 1603 -3.9939960000000003E5
1603 1602 -4.0140060000000003E5
1603 1603 8.008002000000001E5
1603 1604 -3.9939960000000003E5
1604 1603 -4.0140060000000003E5
1604 1604 8.008002000000001E5
1604 1605 -3.9939960000000003E5
1605 1604 -4.0140060000000003E5
1605 1605 8.008002000000001E5
1605 1606 -3.9939960000000003E5
1606 1605 -4.0140060000000003E5
1606 1606 8.008002000000001E5
1606 1607 -3.9939960000000003E5
1607 1606 -4.0140060000000003E5
1607 1607 8.008002000000001E5
1607 1608 -3.9939960000000003E5
1608 1607 -4.0140060000000003E5
1608 1608 8.008002000000001E5
1608 1609 -3.9939960000000003E5
1609 1608 -4.0140060000000003E5
1609 1609 8.008002000000001E5
1609 1610 -3.9939960000000003E5
1610 1609 -4.0140060000000003E5
1610 1610 8.008002000000001E5
1610 1611 -3.9939960000000003E5
1611 1610 -4.0140060000000003E5
1611 1611 8.008002000000001E5
1611 1612 -3.9939960000000003E5
1612 1611 -4.0140060000000003E5
1612 1612 8.008002000000001E5
1612 1613 -3.9939960000000003E5
1613 1612 -4.0140060000000003E5
1613 1613 8.008002000000001E5
1613 1614 -3.9939960000000003E5
1614 1613 -4.0140060000000003E5
1614 1614 8.008002000000001E5
1614 1615 -3.9939960000000003E5
1615 1614 -4.0140060000000003E5
1615 1615 8.008002000000001E5
1615 1616 -3.9939960000000003E5
1616 1615 -4.0140060000000003E5
1616 1616 8.008002000000001E5
1616 1617 -3.9939960000000003E5
1617 1616 -4.0140060000000003E5
1617 1617 8.008002000000001E5
1617 1618 -3.9939960000000003E5
1618 1617 -4.0140060000000003E5
1618 1618 8.008002000000001E5
1618 1619 -3.9939960000000003E5
1619 1618 -4.0140060000000003E5
1619 1619 8.008002000000001E5
1619 1620 -3.9939960000000003E5
1620 1619 -4.0140060000000003E5
1620 1620 8.008002000000001E5
1620 1621 -3.9939960000000003E5
1621 1620 -4.0140060000000003E5
1621 1621 8.008002000000001E5
1621 1622 -3.9939960000000003E5
1622 1621 -4.0140060000000003E5
1622 1622 8.008002000000001E5
1622 1623 -3.9939960000000003E5
1623 1622 -4.0140060000000003E5
1623 1623 8.008002000000001E5
1623 1624 -3.9939960000000003E5
1624 1623 -4.0140060000000003E5
1624 1624 8.008002000000001E5
1624 1625 -3.9939960000000003E5
1625 1624 -4.0140060000000003E5
1625 1625 8.008002000000001E5
1625 1626 -3.9939960000000003E5
1626 1625 -4.0140060000000003E5
1626 1626 8.008002000000001E5
1626 1627 -3.9939960000000003E5
1627 1626 -4.0140060000000003E5
1627 1627 8.008002000000001E5
1627 1628 -3.9939960000000003E5
1628 1627 -4.0140060000000003E5
1628 1628 8.008002000000001E5
1628 1629 -3.9939960000000003E5
1629 1628 -4.0140060000000003E5
1629 1629 8.008002000000001E5
1629 1630 -3.9939960000000003E5
1630 1629 -4.0140060000000003E5
1630 1630 8.008002000000001E5
1630 1631 -3.9939960000000003E5
1631 1630 -4.0140060000000003E5
1631 1631 8.008002000000001E5
1631 1632 -3.9939960000000003E5
1632 1631 -4.0140060000000003E5
1632 1632 8.008002000000001E5
1632 1633 -3.9939960000000003E5
1633 1632 -4.0140060000000003E5
1633 1633 8.008002000000001E5
1633 1634 -3.9939960000000003E5
1634 1633 -4.0140060000000003E5
1634 1634 8.008002000000001E5
1634 1635 -3.9939960000000003E5
1635 1634 -4.0140060000000003E5
1635 1635 8.008002000000001E5
1635 1636 -3.9939960000000003E5
1636 1635 -4.0140060000000003E5
1636 1636 8.008002000000001E5
1636 1637 -3.9939960000000003E5
1637 1636 -4.0140060000000003E5
1637 1637 8.008002000000001E5
1637 1638 -3.9939960000000003E5
1638 1637 -4.0140060000000003E5
1638 1638 8.008002000000001E5
1638 1639 -3.9939960000000003E5
1639 1638 -4.0140060000000003E5
1639 1639 8.008002000000001E5
1639 1640 -3.9939960000000003E5
1640 1639 -4.0140060000000003E5
1640 1640 8.008002000000001E5
1640 1641 -3.9939960000000003E5
1641 1640 -4.0140060000000003E5
1641 1641 8.008002000000001E5
1641 1642 -3.9939960000000003E5
1642 1641 -4.0140060000000003E5
1642 1642 8.008002000000001E5
1642 1643 -3.9939960000000003E5
1643 1642 -4.0140060000000003E5
1643 1643 8.008002000000001E5
1643 1644 -3.9939960000000003E5
1644 1643 -4.0140060000000003E5
1644 1644 8.008002000000001E5
1644 1645 -3.9939960000000003E5
1645 1644 -4.0140060000000003E5
1645 1645 8.008002000000001E5
1645 1646 -3.9939960000000003E5
1646 1645 -4.0140060000000003E5
1646 1646 8.008002000000001E5
1646 1647 -3.9939960000000003E5
1647 1646 -4.0140060000000003E5
1647 1647 8.008002000000001E5
1647 1648 -3.9939960000000003E5
1648 1647 -4.0140060000000003E5
1648 1648 8.008002000000001E5
1648 1649 -3.9939960000000003E5
1649 1648 -4.0140060000000003E5
1649 1649 8.008002000000001E5
1649 1650 -3.9939960000000003E5
1650 1649 -4.0140060000000003E5
1650 1650 8.008002000000001E5
1650 1651 -3.9939960000000003E5
1651 1650 -4.0140060000000003E5
1651 1651 8.008002000000001E5
1651 1652 -3.9939960000000003E5
1652 1651 -4.0140060000000003E5
1652 1652 8.008002000000001E5
1652 1653 -3.9939960000000003E5
1653 1652 -4.0140060000000003E5
1653 1653 8.008002000000001E5
1653 1654 -3.9939960000000003E5
1654 1653 -4.0140060000000003E5
1654 1654 8.008002000000001E5
1654 1655 -3.9939960000000003E5
1655 1654 -4.0140060000000003E5
1655 1655 8.008002000000001E5
1655 1656 -3.9939960000000003E5
1656 1655 -4.0140060000000003E5
1656 1656 8.008002000000001E5
1656 1657 -3.9939960000000003E5
1657 1656 -4.0140060000000003E5
1657 1657 8.008002000000001E5
1657 1658 -3.9939960000000003E5
1658 1657 -4.0140060000000003E5
1658 1658 8.008002000000001E5
1658 1659 -3.9939960000000003E5
1659 1658 -4.0140060000000003E5
1659 1659 8.008002000000001E5
1659 1660 -3.9939960000000003E5
1660 1659 -4.0140060000000003E5
1660 1660 8.008002000000001E5
1660 1661 -3.9939960000000003E5
1661 1660 -4.0140060000000003E5
1661 1661 8.008002000000001E5
1661 1662 -3.9939960000000003E5
1662 1661 -4.0140060000000003E5
1662 1662 8.008002000000001E5
1662 1663 -3.9939960000000003E5
1663 1662 -4.0140060000000003E5
1663 1663 8.008002000000001E5
1663 1664 -3.9939960000000003E5
1664 1663 -4.0140060000000003E5
1664 1664 8.008002000000001E5
1664 1665 -3.9939960000000003E5
1665 1664 -4.0140060000000003E5
1665 1665 8.008002000000001E5
1665 1666 -3.9939960000000003E5
1666 1665 -4.0140060000000003E5
1666 1666 8.008002000000001E5
1666 1667 -3.9939960000000003E5
1667 1666 -4.0140060000000003E5
1667 1667 8.008002000000001E5
1667 1668 -3.9939960000000003E5
1668 1667 -4.0140060000000003E5
1668 1668 8.008002000000001E5
1668 1669 -3.9939960000000003E5
1669 1668 -4.0140060000000003E5
1669 1669 8.008002000000001E5
1669 1670 -3.9939960000000003E5
1670 1669 -4.0140060000000003E5
1670 1670 8.008002000000001E5
1670 1671 -3.9939960000000003E5
1671 1670 -4.0140060000000003E5
1671 1671 8.008002000000001E5
1671 1672 -3.9939960000000003E5
1672 1671 -4.0140060000000003E5
1672 1672 8.008002000000001E5
1672 1673 -3.9939960000000003E5
1673 1672 -4.0140060000000003E5
1673 1673 8.008002000000001E5
1673 1674 -3.9939960000000003E5
1674 1673 -4.0140060000000003E5
1674 1674 8.008002000000001E5
1674 1675 -3.9939960000000003E5
1675 1674 -4.0140060000000003E5
1675 1675 8.008002000000001E5
1675 1676 -3.9939960000000003E5
1676 1675 -4.0140060000000003E5
1676 1676 8.008002000000001E5
1676 1677 -3.9939960000000003E5
1677 1676 -4.0140060000000003E5
1677 1677 8.008002000000001E5
1677 1678 -3.9939960000000003E5
1678 1677 -4.0140060000000003E5
1678 1678 8.008002000000001E5
1678 1679 -3.9939960000000003E5
1679 1678 -4.0140060000000003E5
1679 1679 8.008002000000001E5
1679 1680 -3.9939960000000003E5
1680 1679 -4.0140060000000003E5
1680 1680 8.008002000000001E5
1680 1681 -3.9939960000000003E5
1681 1680 -4.0140060000000003E5
1681 1681 8.008002000000001E5
1681 1682 -3.9939960000000003E5
1682 1681 -4.0140060000000003E5
1682 1682 8.008002000000001E5
1682 1683 -3.9939960000000003E5
1683 1682 -4.0140060000000003E5
1683 1683 8.008002000000001E5
1683 1684 -3.9939960000000003E5
1684 1683 -4.0140060000000003E5
1684 1684 8.008002000000001E5
1684 1685 -3.9939960000000003E5
1685 1684 -4.0140060000000003E5
1685 1685 8.008002000000001E5
1685 1686 -3.9939960000000003E5
1686 1685 -4.0140060000000003E5
1686 1686 8.008002000000001E5
1686 1687 -3.9939960000000003E5
1687 1686 -4.0140060000000003E5
1687 1687 8.008002000000001E5
1687 1688 -3.9939960000000003E5
1688 1687 -4.0140060000000003E5
1688 1688 8.008002000000001E5
1688 1689 -3.9939960000000003E5
1689 1688 -4.0140060000000003E5
1689 1689 8.008002000000001E5
1689 1690 -3.9939960000000003E5
1690 1689 -4.0140060000000003E5
1690 1690 8.008002000000001E5
1690 1691 -3.9939960000000003E5
1691 1690 -4.0140060000000003E5
1691 1691 8.008002000000001E5
1691 1692 -3.9939960000000003E5
1692 1691 -4.0140060000000003E5
1692 1692 8.008002000000001E5
1692 1693 -3.9939960000000003E5
1693 1692 -4.0140060000000003E5
1693 1693 8.008002000000001E5
1693 1694 -3.9939960000000003E5
1694 1693 -4.0140060000000003E5
1694 1694 8.008002000000001E5
1694 1695 -3.9939960000000003E5
1695 1694 -4.0140060000000003E5
1695 1695 8.008002000000001E5
1695 1696 -3.9939960000000003E5
1696 1695 -4.0140060000000003E5
1696 1696 8.008002000000001E5
1696 1697 -3.9939960000000003E5
1697 1696 -4.0140060000000003E5
1697 1697 8.008002000000001E5
1697 1698 -3.9939960000000003E5
1698 1697 -4.0140060000000003E5
1698 1698 8.008002000000001E5
1698 1699 -3.9939960000000003E5
1699 1698 -4.0140060000000003E5
1699 1699 8.008002000000001E5
1699 1700 -3.9939960000000003E5
1700 1699 -4.0140060000000003E5
1700 1700 8.008002000000001E5
1700 1701 -3.9939960000000003E5
1701 1700 -4.0140060000000003E5
1701 1701 8.008002000000001E5
1701 1702 -3.9939960000000003E5
1702 1701 -4.0140060000000003E5
1702 1702 8.008002000000001E5
1702 1703 -3.9939960000000003E5
1703 1702 -4.0140060000000003E5
1703 1703 8.008002000000001E5
1703 1704 -3.9939960000000003E5
1704 1703 -4.0140060000000003E5
1704 1704 8.008002000000001E5
1704 1705 -3.9939960000000003E5
1705 1704 -4.0140060000000003E5
1705 1705 8.008002000000001E5
1705 1706 -3.9939960000000003E5
1706 1705 -4.0140060000000003E5
1706 1706 8.008002000000001E5
1706 1707 -3.9939960000000003E5
1707 1706 -4.0140060000000003E5
1707 1707 8.008002000000001E5
1707 1708 -3.9939960000000003E5
1708 1707 -4.0140060000000003E5
1708 1708 8.008002000000001E5
1708 1709 -3.9939960000000003E5
1709 1708 -4.0140060000000003E5
1709 1709 8.008002000000001E5
1709 1710 -3.9939960000000003E5
1710 1709 -4.0140060000000003E5
1710 1710 8.008002000000001E5
1710 1711 -3.9939960000000003E5
1711 1710 -4.0140060000000003E5
1711 1711 8.008002000000001E5
1711 1712 -3.9939960000000003E5
1712 1711 -4.0140060000000003E5
1712 1712 8.008002000000001E5
1712 1713 -3.9939960000000003E5
1713 1712 -4.0140060000000003E5
1713 1713 8.008002000000001E5
1713 1714 -3.9939960000000003E5
1714 1713 -4.0140060000000003E5
1714 1714 8.008002000000001E5
1714 1715 -3.9939960000000003E5
1715 1714 -4.0140060000000003E5
1715 1715 8.008002000000001E5
1715 1716 -3.9939960000000003E5
1716 1715 -4.0140060000000003E5
1716 1716 8.008002000000001E5
1716 1717 -3.9939960000000003E5
1717 1716 -4.0140060000000003E5
1717 1717 8.008002000000001E5
1717 1718 -3.9939960000000003E5
1718 1717 -4.0140060000000003E5
1718 1718 8.008002000000001E5
1718 1719 -3.9939960000000003E5
1719 1718 -4.0140060000000003E5
1719 1719 8.008002000000001E5
1719 1720 -3.9939960000000003E5
1720 1719 -4.0140060000000003E5
1720 1720 8.008002000000001E5
1720 1721 -3.9939960000000003E5
1721 1720 -4.0140060000000003E5
1721 1721 8.008002000000001E5
1721 1722 -3.9939960000000003E5
1722 1721 -4.0140060000000003E5
1722 1722 8.008002000000001E5
1722 1723 -3.9939960000000003E5
1723 1722 -4.0140060000000003E5
1723 1723 8.008002000000001E5
1723 1724 -3.9939960000000003E5
1724 1723 -4.0140060000000003E5
1724 1724 8.008002000000001E5
1724 1725 -3.9939960000000003E5
1725 1724 -4.0140060000000003E5
1725 1725 8.008002000000001E5
1725 1726 -3.9939960000000003E5
1726 1725 -4.0140060000000003E5
1726 1726 8.008002000000001E5
1726 1727 -3.9939960000000003E5
1727 1726 -4.0140060000000003E5
1727 1727 8.008002000000001E5
1727 1728 -3.9939960000000003E5
1728 1727 -4.0140060000000003E5
1728 1728 8.008002000000001E5
1728 1729 -3.9939960000000003E5
1729 1728 -4.0140060000000003E5
1729 1729 8.008002000000001E5
1729 1730 -3.9939960000000003E5
1730 1729 -4.0140060000000003E5
1730 1730 8.008002000000001E5
1730 1731 -3.9939960000000003E5
1731 1730 -4.0140060000000003E5
1731 1731 8.008002000000001E5
1731 1732 -3.9939960000000003E5
1732 1731 -4.0140060000000003E5
1732 1732 8.008002000000001E5
1732 1733 -3.9939960000000003E5
1733 1732 -4.0140060000000003E5
1733 1733 8.008002000000001E5
1733 1734 -3.9939960000000003E5
1734 1733 -4.0140060000000003E5
1734 1734 8.008002000000001E5
1734 1735 -3.9939960000000003E5
1735 1734 -4.0140060000000003E5
1735 1735 8.008002000000001E5
1735 1736 -3.9939960000000003E5
1736 1735 -4.0140060000000003E5
1736 1736 8.008002000000001E5
1736 1737 -3.9939960000000003E5
1737 1736 -4.0140060000000003E5
1737 1737 8.008002000000001E5
1737 1738 -3.9939960000000003E5
1738 1737 -4.0140060000000003E5
1738 1738 8.008002000000001E5
1738 1739 -3.9939960000000003E5
1739 1738 -4.0140060000000003E5
1739 1739 8.008002000000001E5
1739 1740 -3.9939960000000003E5
1740 1739 -4.0140060000000003E5
1740 1740 8.008002000000001E5
1740 1741 -3.9939960000000003E5
1741 1740 -4.0140060000000003E5
1741 1741 8.008002000000001E5
1741 1742 -3.9939960000000003E5
1742 1741 -4.0140060000000003E5
1742 1742 8.008002000000001E5
1742 1743 -3.9939960000000003E5
1743 1742 -4.0140060000000003E5
1743 1743 8.008002000000001E5
1743 1744 -3.9939960000000003E5
1744 1743 -4.0140060000000003E5
1744 1744 8.008002000000001E5
1744 1745 -3.9939960000000003E5
1745 1744 -4.0140060000000003E5
1745 1745 8.008002000000001E5
1745 1746 -3.9939960000000003E5
1746 1745 -4.0140060000000003E5
1746 1746 8.008002000000001E5
1746 1747 -3.9939960000000003E5
1747 1746 -4.0140060000000003E5
1747 1747 8.008002000000001E5
1747 1748 -3.9939960000000003E5
1748 1747 -4.0140060000000003E5
1748 1748 8.008002000000001E5
1748 1749 -3.9939960000000003E5
1749 1748 -4.0140060000000003E5
1749 1749 8.008002000000001E5
1749 1750 -3.9939960000000003E5
1750 1749 -4.0140060000000003E5
1750 1750 8.008002000000001E5
1750 1751 -3.9939960000000003E5
1751 1750 -4.0140060000000003E5
1751 1751 8.008002000000001E5
1751 1752 -3.9939960000000003E5
1752 1751 -4.0140060000000003E5
1752 1752 8.008002000000001E5
1752 1753 -3.9939960000000003E5
1753 1752 -4.0140060000000003E5
1753 1753 8.008002000000001E5
1753 1754 -3.9939960000000003E5
1754 1753 -4.0140060000000003E5
1754 1754 8.008002000000001E5
1754 1755 -3.9939960000000003E5
1755 1754 -4.0140060000000003E5
1755 1755 8.008002000000001E5
1755 1756 -3.9939960000000003E5
1756 1755 -4.0140060000000003E5
1756 1756 8.008002000000001E5
1756 1757 -3.9939960000000003E5
1757 1756 -4.0140060000000003E5
1757 1757 8.008002000000001E5
1757 1758 -3.9939960000000003E5
1758 1757 -4.0140060000000003E5
1758 1758 8.008002000000001E5
1758 1759 -3.9939960000000003E5
1759 1758 -4.0140060000000003E5
1759 1759 8.008002000000001E5
1759 1760 -3.9939960000000003E5
1760 1759 -4.0140060000000003E5
1760 1760 8.008002000000001E5
1760 1761 -3.9939960000000003E5
1761 1760 -4.0140060000000003E5
1761 1761 8.008002000000001E5
1761 1762 -3.9939960000000003E5
1762 1761 -4.0140060000000003E5
1762 1762 8.008002000000001E5
1762 1763 -3.9939960000000003E5
1763 1762 -4.0140060000000003E5
1763 1763 8.008002000000001E5
1763 1764 -3.9939960000000003E5
1764 1763 -4.0140060000000003E5
1764 1764 8.008002000000001E5
1764 1765 -3.9939960000000003E5
1765 1764 -4.0140060000000003E5
1765 1765 8.008002000000001E5
1765 1766 -3.9939960000000003E5
1766 1765 -4.0140060000000003E5
1766 1766 8.008002000000001E5
1766 1767 -3.9939960000000003E5
1767 1766 -4.0140060000000003E5
1767 1767 8.008002000000001E5
1767 1768 -3.9939960000000003E5
1768 1767 -4.0140060000000003E5
1768 1768 8.008002000000001E5
1768 1769 -3.9939960000000003E5
1769 1768 -4.0140060000000003E5
1769 1769 8.008002000000001E5
1769 1770 -3.9939960000000003E5
1770 1769 -4.0140060000000003E5
1770 1770 8.008002000000001E5
1770 1771 -3.9939960000000003E5
1771 1770 -4.0140060000000003E5
1771 1771 8.008002000000001E5
1771 1772 -3.9939960000000003E5
1772 1771 -4.0140060000000003E5
1772 1772 8.008002000000001E5
1772 1773 -3.9939960000000003E5
1773 1772 -4.0140060000000003E5
1773 1773 8.008002000000001E5
1773 1774 -3.9939960000000003E5
1774 1773 -4.0140060000000003E5
1774 1774 8.008002000000001E5
1774 1775 -3.9939960000000003E5
1775 1774 -4.0140060000000003E5
1775 1775 8.008002000000001E5
1775 1776 -3.9939960000000003E5
1776 1775 -4.0140060000000003E5
1776 1776 8.008002000000001E5
1776 1777 -3.9939960000000003E5
1777 1776 -4.0140060000000003E5
1777 1777 8.008002000000001E5
1777 1778 -3.9939960000000003E5
1778 1777 -4.0140060000000003E5
1778 1778 8.008002000000001E5
1778 1779 -3.9939960000000003E5
1779 1778 -4.0140060000000003E5
1779 1779 8.008002000000001E5
1779 1780 -3.9939960000000003E5
1780 1779 -4.0140060000000003E5
1780 1780 8.008002000000001E5
1780 1781 -3.9939960000000003E5
1781 1780 -4.0140060000000003E5
1781 1781 8.008002000000001E5
1781 1782 -3.9939960000000003E5
1782 1781 -4.0140060000000003E5
1782 1782 8.008002000000001E5
1782 1783 -3.9939960000000003E5
1783 1782 -4.0140060000000003E5
1783 1783 8.008002000000001E5
1783 1784 -3.9939960000000003E5
1784 1783 -4.0140060000000003E5
1784 1784 8.008002000000001E5
1784 1785 -3.9939960000000003E5
1785 1784 -4.0140060000000003E5
1785 1785 8.008002000000001E5
1785 1786 -3.9939960000000003E5
1786 1785 -4.0140060000000003E5
1786 1786 8.008002000000001E5
1786 1787 -3.9939960000000003E5
1787 1786 -4.0140060000000003E5
1787 1787 8.008002000000001E5
1787 1788 -3.9939960000000003E5
1788 1787 -4.0140060000000003E5
1788 1788 8.008002000000001E5
1788 1789 -3.9939960000000003E5
1789 1788 -4.0140060000000003E5
1789 1789 8.008002000000001E5
1789 1790 -3.9939960000000003E5
1790 1789 -4.0140060000000003E5
1790 1790 8.008002000000001E5
1790 1791 -3.9939960000000003E5
1791 1790 -4.0140060000000003E5
1791 1791 8.008002000000001E5
1791 1792 -3.9939960000000003E5
1792 1791 -4.0140060000000003E5
1792 1792 8.008002000000001E5
1792 1793 -3.9939960000000003E5
1793 1792 -4.0140060000000003E5
1793 1793 8.008002000000001E5
1793 1794 -3.9939960000000003E5
1794 1793 -4.0140060000000003E5
1794 1794 8.008002000000001E5
1794 1795 -3.9939960000000003E5
1795 1794 -4.0140060000000003E5
1795 1795 8.008002000000001E5
1795 1796 -3.9939960000000003E5
1796 1795 -4.0140060000000003E5
1796 1796 8.008002000000001E5
1796 1797 -3.9939960000000003E5
1797 1796 -4.0140060000000003E5
1797 1797 8.008002000000001E5
1797 1798 -3.9939960000000003E5
1798 1797 -4.0140060000000003E5
1798 1798 8.008002000000001E5
1798 1799 -3.9939960000000003E5
1799 1798 -4.0140060000000003E5
1799 1799 8.008002000000001E5
1799 1800 -3.9939960000000003E5
1800 1799 -4.0140060000000003E5
1800 1800 8.008002000000001E5
1800 1801 -3.9939960000000003E5
1801 1800 -4.0140060000000003E5
1801 1801 8.008002000000001E5
1801 1802 -3.9939960000000003E5
1802 1801 -4.0140060000000003E5
1802 1802 8.008002000000001E5
1802 1803 -3.9939960000000003E5
1803 1802 -4.0140060000000003E5
1803 1803 8.008002000000001E5
1803 1804 -3.9939960000000003E5
1804 1803 -4.0140060000000003E5
1804 1804 8.008002000000001E5
1804 1805 -3.9939960000000003E5
1805 1804 -4.0140060000000003E5
1805 1805 8.008002000000001E5
1805 1806 -3.9939960000000003E5
1806 1805 -4.0140060000000003E5
1806 1806 8.008002000000001E5
1806 1807 -3.9939960000000003E5
1807 1806 -4.0140060000000003E5
1807 1807 8.008002000000001E5
1807 1808 -3.9939960000000003E5
1808 1807 -4.0140060000000003E5
1808 1808 8.008002000000001E5
1808 1809 -3.9939960000000003E5
1809 1808 -4.0140060000000003E5
1809 1809 8.008002000000001E5
1809 1810 -3.9939960000000003E5
1810 1809 -4.0140060000000003E5
1810 1810 8.008002000000001E5
1810 1811 -3.9939960000000003E5
1811 1810 -4.0140060000000003E5
1811 1811 8.008002000000001E5
1811 1812 -3.9939960000000003E5
1812 1811 -4.0140060000000003E5
1812 1812 8.008002000000001E5
1812 1813 -3.9939960000000003E5
1813 1812 -4.0140060000000003E5
1813 1813 8.008002000000001E5
1813 1814 -3.9939960000000003E5
1814 1813 -4.0140060000000003E5
1814 1814 8.008002000000001E5
1814 1815 -3.9939960000000003E5
1815 1814 -4.0140060000000003E5
1815 1815 8.008002000000001E5
1815 1816 -3.9939960000000003E5
1816 1815 -4.0140060000000003E5
1816 1816 8.008002000000001E5
1816 1817 -3.9939960000000003E5
1817 1816 -4.0140060000000003E5
1817 1817 8.008002000000001E5
1817 1818 -3.9939960000000003E5
1818 1817 -4.0140060000000003E5
1818 1818 8.008002000000001E5
1818 1819 -3.9939960000000003E5
1819 1818 -4.0140060000000003E5
1819 1819 8.008002000000001E5
1819 1820 -3.9939960000000003E5
1820 1819 -4.0140060000000003E5
1820 1820 8.008002000000001E5
1820 1821 -3.9939960000000003E5
1821 1820 -4.0140060000000003E5
1821 1821 8.008002000000001E5
1821 1822 -3.9939960000000003E5
1822 1821 -4.0140060000000003E5
1822 1822 8.008002000000001E5
1822 1823 -3.9939960000000003E5
1823 1822 -4.0140060000000003E5
1823 1823 8.008002000000001E5
1823 1824 -3.9939960000000003E5
1824 1823 -4.0140060000000003E5
1824 1824 8.008002000000001E5
1824 1825 -3.9939960000000003E5
1825 1824 -4.0140060000000003E5
1825 1825 8.008002000000001E5
1825 1826 -3.9939960000000003E5
1826 1825 -4.0140060000000003E5
1826 1826 8.008002000000001E5
1826 1827 -3.9939960000000003E5
1827 1826 -4.0140060000000003E5
1827 1827 8.008002000000001E5
1827 1828 -3.9939960000000003E5
1828 1827 -4.0140060000000003E5
1828 1828 8.008002000000001E5
1828 1829 -3.9939960000000003E5
1829 1828 -4.0140060000000003E5
1829 1829 8.008002000000001E5
1829 1830 -3.9939960000000003E5
1830 1829 -4.0140060000000003E5
1830 1830 8.008002000000001E5
1830 1831 -3.9939960000000003E5
1831 1830 -4.0140060000000003E5
1831 1831 8.008002000000001E5
1831 1832 -3.9939960000000003E5
1832 1831 -4.0140060000000003E5
1832 1832 8.008002000000001E5
1832 1833 -3.9939960000000003E5
1833 1832 -4.0140060000000003E5
1833 1833 8.008002000000001E5
1833 1834 -3.9939960000000003E5
1834 1833 -4.0140060000000003E5
1834 1834 8.008002000000001E5
1834 1835 -3.9939960000000003E5
1835 1834 -4.0140060000000003E5
1835 1835 8.008002000000001E5
1835 1836 -3.9939960000000003E5
1836 1835 -4.0140060000000003E5
1836 1836 8.008002000000001E5
1836 1837 -3.9939960000000003E5
1837 1836 -4.0140060000000003E5
1837 1837 8.008002000000001E5
1837 1838 -3.9939960000000003E5
1838 1837 -4.0140060000000003E5
1838 1838 8.008002000000001E5
1838 1839 -3.9939960000000003E5
1839 1838 -4.0140060000000003E5
1839 1839 8.008002000000001E5
1839 1840 -3.9939960000000003E5
1840 1839 -4.0140060000000003E5
1840 1840 8.008002000000001E5
1840 1841 -3.9939960000000003E5
1841 1840 -4.0140060000000003E5
1841 1841 8.008002000000001E5
1841 1842 -3.9939960000000003E5
1842 1841 -4.0140060000000003E5
1842 1842 8.008002000000001E5
1842 1843 -3.9939960000000003E5
1843 1842 -4.0140060000000003E5
1843 1843 8.008002000000001E5
1843 1844 -3.9939960000000003E5
1844 1843 -4.0140060000000003E5
1844 1844 8.008002000000001E5
1844 1845 -3.9939960000000003E5
1845 1844 -4.0140060000000003E5
1845 1845 8.008002000000001E5
1845 1846 -3.9939960000000003E5
1846 1845 -4.0140060000000003E5
1846 1846 8.008002000000001E5
1846 1847 -3.9939960000000003E5
1847 1846 -4.0140060000000003E5
1847 1847 8.008002000000001E5
1847 1848 -3.9939960000000003E5
1848 1847 -4.0140060000000003E5
1848 1848 8.008002000000001E5
1848 1849 -3.9939960000000003E5
1849 1848 -4.0140060000000003E5
1849 1849 8.008002000000001E5
1849 1850 -3.9939960000000003E5
1850 1849 -4.0140060000000003E5
1850 1850 8.008002000000001E5
1850 1851 -3.9939960000000003E5
1851 1850 -4.0140060000000003E5
1851 1851 8.008002000000001E5
1851 1852 -3.9939960000000003E5
1852 1851 -4.0140060000000003E5
1852 1852 8.008002000000001E5
1852 1853 -3.9939960000000003E5
1853 1852 -4.0140060000000003E5
1853 1853 8.008002000000001E5
1853 1854 -3.9939960000000003E5
1854 1853 -4.0140060000000003E5
1854 1854 8.008002000000001E5
1854 1855 -3.9939960000000003E5
1855 1854 -4.0140060000000003E5
1855 1855 8.008002000000001E5
1855 1856 -3.9939960000000003E5
1856 1855 -4.0140060000000003E5
1856 1856 8.008002000000001E5
1856 1857 -3.9939960000000003E5
1857 1856 -4.0140060000000003E5
1857 1857 8.008002000000001E5
1857 1858 -3.9939960000000003E5
1858 1857 -4.0140060000000003E5
1858 1858 8.008002000000001E5
1858 1859 -3.9939960000000003E5
1859 1858 -4.0140060000000003E5
1859 1859 8.008002000000001E5
1859 1860 -3.9939960000000003E5
1860 1859 -4.0140060000000003E5
1860 1860 8.008002000000001E5
1860 1861 -3.9939960000000003E5
1861 1860 -4.0140060000000003E5
1861 1861 8.008002000000001E5
1861 1862 -3.9939960000000003E5
1862 1861 -4.0140060000000003E5
1862 1862 8.008002000000001E5
1862 1863 -3.9939960000000003E5
1863 1862 -4.0140060000000003E5
1863 1863 8.008002000000001E5
1863 1864 -3.9939960000000003E5
1864 1863 -4.0140060000000003E5
1864 1864 8.008002000000001E5
1864 1865 -3.9939960000000003E5
1865 1864 -4.0140060000000003E5
1865 1865 8.008002000000001E5
1865 1866 -3.9939960000000003E5
1866 1865 -4.0140060000000003E5
1866 1866 8.008002000000001E5
1866 1867 -3.9939960000000003E5
1867 1866 -4.0140060000000003E5
1867 1867 8.008002000000001E5
1867 1868 -3.9939960000000003E5
1868 1867 -4.0140060000000003E5
1868 1868 8.008002000000001E5
1868 1869 -3.9939960000000003E5
1869 1868 -4.0140060000000003E5
1869 1869 8.008002000000001E5
1869 1870 -3.9939960000000003E5
1870 1869 -4.0140060000000003E5
1870 1870 8.008002000000001E5
1870 1871 -3.9939960000000003E5
1871 1870 -4.0140060000000003E5
1871 1871 8.008002000000001E5
1871 1872 -3.9939960000000003E5
1872 1871 -4.0140060000000003E5
1872 1872 8.008002000000001E5
1872 1873 -3.9939960000000003E5
1873 1872 -4.0140060000000003E5
1873 1873 8.008002000000001E5
1873 1874 -3.9939960000000003E5
1874 1873 -4.0140060000000003E5
1874 1874 8.008002000000001E5
1874 1875 -3.9939960000000003E5
1875 1874 -4.0140060000000003E5
1875 1875 8.008002000000001E5
1875 1876 -3.9939960000000003E5
1876 1875 -4.0140060000000003E5
1876 1876 8.008002000000001E5
1876 1877 -3.9939960000000003E5
1877 1876 -4.0140060000000003E5
1877 1877 8.008002000000001E5
1877 1878 -3.9939960000000003E5
1878 1877 -4.0140060000000003E5
1878 1878 8.008002000000001E5
1878 1879 -3.9939960000000003E5
1879 1878 -4.0140060000000003E5
1879 1879 8.008002000000001E5
1879 1880 -3.9939960000000003E5
1880 1879 -4.0140060000000003E5
1880 1880 8.008002000000001E5
1880 1881 -3.9939960000000003E5
1881 1880 -4.0140060000000003E5
1881 1881 8.008002000000001E5
1881 1882 -3.9939960000000003E5
1882 1881 -4.0140060000000003E5
1882 1882 8.008002000000001E5
1882 1883 -3.9939960000000003E5
1883 1882 -4.0140060000000003E5
1883 1883 8.008002000000001E5
1883 1884 -3.9939960000000003E5
1884 1883 -4.0140060000000003E5
1884 1884 8.008002000000001E5
1884 1885 -3.9939960000000003E5
1885 1884 -4.0140060000000003E5
1885 1885 8.008002000000001E5
1885 1886 -3.9939960000000003E5
1886 1885 -4.0140060000000003E5
1886 1886 8.008002000000001E5
1886 1887 -3.9939960000000003E5
1887 1886 -4.0140060000000003E5
1887 1887 8.008002000000001E5
1887 1888 -3.9939960000000003E5
1888 1887 -4.0140060000000003E5
1888 1888 8.008002000000001E5
1888 1889 -3.9939960000000003E5
1889 1888 -4.0140060000000003E5
1889 1889 8.008002000000001E5
1889 1890 -3.9939960000000003E5
1890 1889 -4.0140060000000003E5
1890 1890 8.008002000000001E5
1890 1891 -3.9939960000000003E5
1891 1890 -4.0140060000000003E5
1891 1891 8.008002000000001E5
1891 1892 -3.9939960000000003E5
1892 1891 -4.0140060000000003E5
1892 1892 8.008002000000001E5
1892 1893 -3.9939960000000003E5
1893 1892 -4.0140060000000003E5
1893 1893 8.008002000000001E5
1893 1894 -3.9939960000000003E5
1894 1893 -4.0140060000000003E5
1894 1894 8.008002000000001E5
1894 1895 -3.9939960000000003E5
1895 1894 -4.0140060000000003E5
1895 1895 8.008002000000001E5
1895 1896 -3.9939960000000003E5
1896 1895 -4.0140060000000003E5
1896 1896 8.008002000000001E5
1896 1897 -3.9939960000000003E5
1897 1896 -4.0140060000000003E5
1897 1897 8.008002000000001E5
1897 1898 -3.9939960000000003E5
1898 1897 -4.0140060000000003E5
1898 1898 8.008002000000001E5
1898 1899 -3.9939960000000003E5
1899 1898 -4.0140060000000003E5
1899 1899 8.008002000000001E5
1899 1900 -3.9939960000000003E5
1900 1899 -4.0140060000000003E5
1900 1900 8.008002000000001E5
1900 1901 -3.9939960000000003E5
1901 1900 -4.0140060000000003E5
1901 1901 8.008002000000001E5
1901 1902 -3.9939960000000003E5
1902 1901 -4.0140060000000003E5
1902 1902 8.008002000000001E5
1902 1903 -3.9939960000000003E5
1903 1902 -4.0140060000000003E5
1903 1903 8.008002000000001E5
1903 1904 -3.9939960000000003E5
1904 1903 -4.0140060000000003E5
1904 1904 8.008002000000001E5
1904 1905 -3.9939960000000003E5
1905 1904 -4.0140060000000003E5
1905 1905 8.008002000000001E5
1905 1906 -3.9939960000000003E5
1906 1905 -4.0140060000000003E5
1906 1906 8.008002000000001E5
1906 1907 -3.9939960000000003E5
1907 1906 -4.0140060000000003E5
1907 1907 8.008002000000001E5
1907 1908 -3.9939960000000003E5
1908 1907 -4.0140060000000003E5
1908 1908 8.008002000000001E5
1908 1909 -3.9939960000000003E5
1909 1908 -4.0140060000000003E5
1909 1909 8.008002000000001E5
1909 1910 -3.9939960000000003E5
1910 1909 -4.0140060000000003E5
1910 1910 8.008002000000001E5
1910 1911 -3.9939960000000003E5
1911 1910 -4.0140060000000003E5
1911 1911 8.008002000000001E5
1911 1912 -3.9939960000000003E5
1912 1911 -4.0140060000000003E5
1912 1912 8.008002000000001E5
1912 1913 -3.9939960000000003E5
1913 1912 -4.0140060000000003E5
1913 1913 8.008002000000001E5
1913 1914 -3.9939960000000003E5
1914 1913 -4.0140060000000003E5
1914 1914 8.008002000000001E5
1914 1915 -3.9939960000000003E5
1915 1914 -4.0140060000000003E5
1915 1915 8.008002000000001E5
1915 1916 -3.9939960000000003E5
1916 1915 -4.0140060000000003E5
1916 1916 8.008002000000001E5
1916 1917 -3.9939960000000003E5
1917 1916 -4.0140060000000003E5
1917 1917 8.008002000000001E5
1917 1918 -3.9939960000000003E5
1918 1917 -4.0140060000000003E5
1918 1918 8.008002000000001E5
1918 1919 -3.9939960000000003E5
1919 1918 -4.0140060000000003E5
1919 1919 8.008002000000001E5
1919 1920 -3.9939960000000003E5
1920 1919 -4.0140060000000003E5
1920 1920 8.008002000000001E5
1920 1921 -3.9939960000000003E5
1921 1920 -4.0140060000000003E5
1921 1921 8.008002000000001E5
1921 1922 -3.9939960000000003E5
1922 1921 -4.0140060000000003E5
1922 1922 8.008002000000001E5
1922 1923 -3.9939960000000003E5
1923 1922 -4.0140060000000003E5
1923 1923 8.008002000000001E5
1923 1924 -3.9939960000000003E5
1924 1923 -4.0140060000000003E5
1924 1924 8.008002000000001E5
1924 1925 -3.9939960000000003E5
1925 1924 -4.0140060000000003E5
1925 1925 8.008002000000001E5
1925 1926 -3.9939960000000003E5
1926 1925 -4.0140060000000003E5
1926 1926 8.008002000000001E5
1926 1927 -3.9939960000000003E5
1927 1926 -4.0140060000000003E5
1927 1927 8.008002000000001E5
1927 1928 -3.9939960000000003E5
1928 1927 -4.0140060000000003E5
1928 1928 8.008002000000001E5
1928 1929 -3.9939960000000003E5
1929 1928 -4.0140060000000003E5
1929 1929 8.008002000000001E5
1929 1930 -3.9939960000000003E5
1930 1929 -4.0140060000000003E5
1930 1930 8.008002000000001E5
1930 1931 -3.9939960000000003E5
1931 1930 -4.0140060000000003E5
1931 1931 8.008002000000001E5
1931 1932 -3.9939960000000003E5
1932 1931 -4.0140060000000003E5
1932 1932 8.008002000000001E5
1932 1933 -3.9939960000000003E5
1933 1932 -4.0140060000000003E5
1933 1933 8.008002000000001E5
1933 1934 -3.9939960000000003E5
1934 1933 -4.0140060000000003E5
1934 1934 8.008002000000001E5
1934 1935 -3.9939960000000003E5
1935 1934 -4.0140060000000003E5
1935 1935 8.008002000000001E5
1935 1936 -3.9939960000000003E5
1936 1935 -4.0140060000000003E5
1936 1936 8.008002000000001E5
1936 1937 -3.9939960000000003E5
1937 1936 -4.0140060000000003E5
1937 1937 8.008002000000001E5
1937 1938 -3.9939960000000003E5
1938 1937 -4.0140060000000003E5
1938 1938 8.008002000000001E5
1938 1939 -3.9939960000000003E5
1939 1938 -4.0140060000000003E5
1939 1939 8.008002000000001E5
1939 1940 -3.9939960000000003E5
1940 1939 -4.0140060000000003E5
1940 1940 8.008002000000001E5
1940 1941 -3.9939960000000003E5
1941 1940 -4.0140060000000003E5
1941 1941 8.008002000000001E5
1941 1942 -3.9939960000000003E5
1942 1941 -4.0140060000000003E5
1942 1942 8.008002000000001E5
1942 1943 -3.9939960000000003E5
1943 1942 -4.0140060000000003E5
1943 1943 8.008002000000001E5
1943 1944 -3.9939960000000003E5
1944 1943 -4.0140060000000003E5
1944 1944 8.008002000000001E5
1944 1945 -3.9939960000000003E5
1945 1944 -4.0140060000000003E5
1945 1945 8.008002000000001E5
1945 1946 -3.9939960000000003E5
1946 1945 -4.0140060000000003E5
1946 1946 8.008002000000001E5
1946 1947 -3.9939960000000003E5
1947 1946 -4.0140060000000003E5
1947 1947 8.008002000000001E5
1947 1948 -3.9939960000000003E5
1948 1947 -4.0140060000000003E5
1948 1948 8.008002000000001E5
1948 1949 -3.9939960000000003E5
1949 1948 -4.0140060000000003E5
1949 1949 8.008002000000001E5
1949 1950 -3.9939960000000003E5
1950 1949 -4.0140060000000003E5
1950 1950 8.008002000000001E5
1950 1951 -3.9939960000000003E5
1951 1950 -4.0140060000000003E5
1951 1951 8.008002000000001E5
1951 1952 -3.9939960000000003E5
1952 1951 -4.0140060000000003E5
1952 1952 8.008002000000001E5
1952 1953 -3.9939960000000003E5
1953 1952 -4.0140060000000003E5
1953 1953 8.008002000000001E5
1953 1954 -3.9939960000000003E5
1954 1953 -4.0140060000000003E5
1954 1954 8.008002000000001E5
1954 1955 -3.9939960000000003E5
1955 1954 -4.0140060000000003E5
1955 1955 8.008002000000001E5
1955 1956 -3.9939960000000003E5
1956 1955 -4.0140060000000003E5
1956 1956 8.008002000000001E5
1956 1957 -3.9939960000000003E5
1957 1956 -4.0140060000000003E5
1957 1957 8.008002000000001E5
1957 1958 -3.9939960000000003E5
1958 1957 -4.0140060000000003E5
1958 1958 8.008002000000001E5
1958 1959 -3.9939960000000003E5
1959 1958 -4.0140060000000003E5
1959 1959 8.008002000000001E5
1959 1960 -3.9939960000000003E5
1960 1959 -4.0140060000000003E5
1960 1960 8.008002000000001E5
1960 1961 -3.9939960000000003E5
1961 1960 -4.0140060000000003E5
1961 1961 8.008002000000001E5
1961 1962 -3.9939960000000003E5
1962 1961 -4.0140060000000003E5
1962 1962 8.008002000000001E5
1962 1963 -3.9939960000000003E5
1963 1962 -4.0140060000000003E5
1963 1963 8.008002000000001E5
1963 1964 -3.9939960000000003E5
1964 1963 -4.0140060000000003E5
1964 1964 8.008002000000001E5
1964 1965 -3.9939960000000003E5
1965 1964 -4.0140060000000003E5
1965 1965 8.008002000000001E5
1965 1966 -3.9939960000000003E5
1966 1965 -4.0140060000000003E5
1966 1966 8.008002000000001E5
1966 1967 -3.9939960000000003E5
1967 1966 -4.0140060000000003E5
1967 1967 8.008002000000001E5
1967 1968 -3.9939960000000003E5
1968 1967 -4.0140060000000003E5
1968 1968 8.008002000000001E5
1968 1969 -3.9939960000000003E5
1969 1968 -4.0140060000000003E5
1969 1969 8.008002000000001E5
1969 1970 -3.9939960000000003E5
1970 1969 -4.0140060000000003E5
1970 1970 8.008002000000001E5
1970 1971 -3.9939960000000003E5
1971 1970 -4.0140060000000003E5
1971 1971 8.008002000000001E5
1971 1972 -3.9939960000000003E5
1972 1971 -4.0140060000000003E5
1972 1972 8.008002000000001E5
1972 1973 -3.9939960000000003E5
1973 1972 -4.0140060000000003E5
1973 1973 8.008002000000001E5
1973 1974 -3.9939960000000003E5
1974 1973 -4.0140060000000003E5
1974 1974 8.008002000000001E5
1974 1975 -3.9939960000000003E5
1975 1974 -4.0140060000000003E5
1975 1975 8.008002000000001E5
1975 1976 -3.9939960000000003E5
1976 1975 -4.0140060000000003E5
1976 1976 8.008002000000001E5
1976 1977 -3.9939960000000003E5
1977 1976 -4.0140060000000003E5
1977 1977 8.008002000000001E5
1977 1978 -3.9939960000000003E5
1978 1977 -4.0140060000000003E5
1978 1978 8.008002000000001E5
1978 1979 -3.9939960000000003E5
1979 1978 -4.0140060000000003E5
1979 1979 8.008002000000001E5
1979 1980 -3.9939960000000003E5
1980 1979 -4.0140060000000003E5
1980 1980 8.008002000000001E5
1980 1981 -3.9939960000000003E5
1981 1980 -4.0140060000000003E5
1981 1981 8.008002000000001E5
1981 1982 -3.9939960000000003E5
1982 1981 -4.0140060000000003E5
1982 1982 8.008002000000001E5
1982 1983 -3.9939960000000003E5
1983 1982 -4.0140060000000003E5
1983 1983 8.008002000000001E5
1983 1984 -3.9939960000000003E5
1984 1983 -4.0140060000000003E5
1984 1984 8.008002000000001E5
1984 1985 -3.9939960000000003E5
1985 1984 -4.0140060000000003E5
1985 1985 8.008002000000001E5
1985 1986 -3.9939960000000003E5
1986 1985 -4.0140060000000003E5
1986 1986 8.008002000000001E5
1986 1987 -3.9939960000000003E5
1987 1986 -4.0140060000000003E5
1987 1987 8.008002000000001E5
1987 1988 -3.9939960000000003E5
1988 1987 -4.0140060000000003E5
1988 1988 8.008002000000001E5
1988 1989 -3.9939960000000003E5
1989 1988 -4.0140060000000003E5
1989 1989 8.008002000000001E5
1989 1990 -3.9939960000000003E5
1990 1989 -4.0140060000000003E5
1990 1990 8.008002000000001E5
1990 1991 -3.9939960000000003E5
1991 1990 -4.0140060000000003E5
1991 1991 8.008002000000001E5
1991 1992 -3.9939960000000003E5
1992 1991 -4.0140060000000003E5
1992 1992 8.008002000000001E5
1992 1993 -3.9939960000000003E5
1993 1992 -4.0140060000000003E5
1993 1993 8.008002000000001E5
1993 1994 -3.9939960000000003E5
1994 1993 -4.0140060000000003E5
1994 1994 8.008002000000001E5
1994 1995 -3.9939960000000003E5
1995 1994 -4.0140060000000003E5
1995 1995 8.008002000000001E5
1995 1996 -3.9939960000000003E5
1996 1995 -4.0140060000000003E5
1996 1996 8.008002000000001E5
1996 1997 -3.9939960000000003E5
1997 1996 -4.0140060000000003E5
1997 1997 8.008002000000001E5
1997 1998 -3.9939960000000003E5
1998 1997 -4.0140060000000003E5
1998 1998 8.008002000000001E5
1998 1999 -3.9939960000000003E5
1999 1998 -4.0140060000000003E5
1999 1999 8.008002000000001E5
1999 2000 -3.9939960000000003E5
2000 1999 -4.0140060000000003E5
2000 2000 8.008002000000001E5
