%%MatrixMarket matrix coordinate real general
% 1D convection-diffusion (-eps*u'' + beta*u' = f), central FD, n=1800, eps=0.08, beta=1.0, kappa~=265150
1800 1800 5398
1 1 5.1897615999999986E5
1 2 -2.5858757999999993E5
2 1 -2.6038857999999993E5
2 2 5.1897615999999986E5
2 3 -2.5858757999999993E5
3 2 -2.6038857999999993E5
3 3 5.1897615999999986E5
3 4 -2.5858757999999993E5
4 3 -2.6038857999999993E5
4 4 5.1897615999999986E5
4 5 -2.5858757999999993E5
5 4 -2.6038857999999993E5
5 5 5.1897615999999986E5
5 6 -2.5858757999999993E5
6 5 -2.6038857999999993E5
6 6 5.1897615999999986E5
6 7 -2.5858757999999993E5
7 6 -2.6038857999999993E5
7 7 5.1897615999999986E5
7 8 -2.5858757999999993E5
8 7 -2.6038857999999993E5
8 8 5.1897615999999986E5
8 9 -2.5858757999999993E5
9 8 -2.6038857999999993E5
9 9 5.1897615999999986E5
9 10 -2.5858757999999993E5
10 9 -2.6038857999999993E5
10 10 5.1897615999999986E5
10 11 -2.5858757999999993E5
11 10 -2.6038857999999993E5
11 11 5.1897615999999986E5
11 12 -2.5858757999999993E5
12 11 -2.6038857999999993E5
12 12 5.1897615999999986E5
12 13 -2.5858757999999993E5
13 12 -2.6038857999999993E5
13 13 5.1897615999999986E5
13 14 -2.5858757999999993E5
14 13 -2.6038857999999993E5
14 14 5.1897615999999986E5
14 15 -2.5858757999999993E5
15 14 -2.6038857999999993E5
15 15 5.1897615999999986E5
15 16 -2.5858757999999993E5
16 15 -2.6038857999999993E5
16 16 5.1897615999999986E5
16 17 -2.5858757999999993E5
17 16 -2.6038857999999993E5
17 17 5.1897615999999986E5
17 18 -2.5858757999999993E5
18 17 -2.6038857999999993E5
18 18 5.1897615999999986E5
18 19 -2.5858757999999993E5
19 18 -2.6038857999999993E5
19 19 5.1897615999999986E5
19 20 -2.5858757999999993E5
20 19 -2.6038857999999993E5
20 20 5.1897615999999986E5
20 21 -2.5858757999999993E5
21 20 -2.6038857999999993E5
21 21 5.1897615999999986E5
21 22 -2.5858757999999993E5
22 21 -2.6038857999999993E5
22 22 5.1897615999999986E5
22 23 -2.5858757999999993E5
23 22 -2.6038857999999993E5
23 23 5.1897615999999986E5
23 24 -2.5858757999999993E5
24 23 -2.6038857999999993E5
24 24 5.1897615999999986E5
24 25 -2.5858757999999993E5
25 24 -2.6038857999999993E5
25 25 5.1897615999999986E5
25 26 -2.5858757999999993E5
26 25 -2.6038857999999993E5
26 26 5.1897615999999986E5
26 27 -2.5858757999999993E5
27 26 -2.6038857999999993E5
27 27 5.1897615999999986E5
27 28 -2.5858757999999993E5
28 27 -2.6038857999999993E5
28 28 5.1897615999999986E5
28 29 -2.5858757999999993E5
29 28 -2.6038857999999993E5
29 29 5.1897615999999986E5
29 30 -2.5858757999999993E5
30 29 -2.6038857999999993E5
30 30 5.1897615999999986E5
30 31 -2.5858757999999993E5
31 30 -2.6038857999999993E5
31 31 5.1897615999999986E5
31 32 -2.5858757999999993E5
32 31 -2.6038857999999993E5
32 32 5.1897615999999986E5
32 33 -2.5858757999999993E5
33 32 -2.6038857999999993E5
33 33 5.1897615999999986E5
33 34 -2.5858757999999993E5
34 33 -2.6038857999999993E5
34 34 5.1897615999999986E5
34 35 -2.5858757999999993E5
35 34 -2.6038857999999993E5
35 35 5.1897615999999986E5
35 36 -2.5858757999999993E5
36 35 -2.6038857999999993E5
36 36 5.1897615999999986E5
36 37 -2.5858757999999993E5
37 36 -2.6038857999999993E5
37 37 5.1897615999999986E5
37 38 -2.5858757999999993E5
38 37 -2.6038857999999993E5
38 38 5.1897615999999986E5
38 39 -2.5858757999999993E5
39 38 -2.6038857999999993E5
39 39 5.1897615999999986E5
39 40 -2.5858757999999993E5
40 39 -2.6038857999999993E5
40 40 5.1897615999999986E5
40 41 -2.5858757999999993E5
41 40 -2.6038857999999993E5
41 41 5.1897615999999986E5
41 42 -2.5858757999999993E5
42 41 -2.6038857999999993E5
42 42 5.1897615999999986E5
42 43 -2.5858757999999993E5
43 42 -2.6038857999999993E5
43 43 5.1897615999999986E5
43 44 -2.5858757999999993E5
44 43 -2.6038857999999993E5
44 44 5.1897615999999986E5
44 45 -2.5858757999999993E5
45 44 -2.6038857999999993E5
45 45 5.1897615999999986E5
45 46 -2.5858757999999993E5
46 45 -2.6038857999999993E5
46 46 5.1897615999999986E5
46 47 -2.5858757999999993E5
47 46 -2.6038857999999993E5
47 47 5.1897615999999986E5
47 48 -2.5858757999999993E5
48 47 -2.6038857999999993E5
48 48 5.1897615999999986E5
48 49 -2.5858757999999993E5
49 48 -2.6038857999999993E5
49 49 5.1897615999999986E5
49 50 -2.5858757999999993E5
50 49 -2.6038857999999993E5
50 50 5.1897615999999986E5
50 51 -2.5858757999999993E5
51 50 -2.6038857999999993E5
51 51 5.1897615999999986E5
51 52 -2.5858757999999993E5
52 51 -2.6038857999999993E5
52 52 5.1897615999999986E5
52 53 -2.5858757999999993E5
53 52 -2.6038857999999993E5
53 53 5.1897615999999986E5
53 54 -2.5858757999999993E5
54 53 -2.6038857999999993E5
54 54 5.1897615999999986E5
54 55 -2.5858757999999993E5
55 54 -2.6038857999999993E5
55 55 5.1897615999999986E5
55 56 -2.5858757999999993E5
56 55 -2.6038857999999993E5
56 56 5.1897615999999986E5
56 57 -2.5858757999999993E5
57 56 -2.6038857999999993E5
57 57 5.1897615999999986E5
57 58 -2.5858757999999993E5
58 57 -2.6038857999999993E5
58 58 5.1897615999999986E5
58 59 -2.5858757999999993E5
59 58 -2.6038857999999993E5
59 59 5.1897615999999986E5
59 60 -2.5858757999999993E5
60 59 -2.6038857999999993E5
60 60 5.1897615999999986E5
60 61 -2.5858757999999993E5
61 60 -2.6038857999999993E5
61 61 5.1897615999999986E5
61 62 -2.5858757999999993E5
62 61 -2.6038857999999993E5
62 62 5.1897615999999986E5
62 63 -2.5858757999999993E5
63 62 -2.6038857999999993E5
63 63 5.1897615999999986E5
63 64 -2.5858757999999993E5
64 63 -2.6038857999999993E5
64 64 5.1897615999999986E5
64 65 -2.5858757999999993E5
65 64 -2.6038857999999993E5
65 65 5.1897615999999986E5
65 66 -2.5858757999999993E5
66 65 -2.6038857999999993E5
66 66 5.1897615999999986E5
66 67 -2.5858757999999993E5
67 66 -2.6038857999999993E5
67 67 5.1897615999999986E5
67 68 -2.5858757999999993E5
68 67 -2.6038857999999993E5
68 68 5.1897615999999986E5
68 69 -2.5858757999999993E5
69 68 -2.6038857999999993E5
69 69 5.1897615999999986E5
69 70 -2.5858757999999993E5
70 69 -2.6038857999999993E5
70 70 5.1897615999999986E5
70 71 -2.5858757999999993E5
71 70 -2.6038857999999993E5
71 71 5.1897615999999986E5
71 72 -2.5858757999999993E5
72 71 -2.6038857999999993E5
72 72 5.1897615999999986E5
72 73 -2.5858757999999993E5
73 72 -2.6038857999999993E5
73 73 5.1897615999999986E5
73 74 -2.5858757999999993E5
74 73 -2.6038857999999993E5
74 74 5.1897615999999986E5
74 75 -2.5858757999999993E5
75 74 -2.6038857999999993E5
75 75 5.1897615999999986E5
75 76 -2.5858757999999993E5
76 75 -2.6038857999999993E5
76 76 5.1897615999999986E5
76 77 -2.5858757999999993E5
77 76 -2.6038857999999993E5
77 77 5.1897615999999986E5
77 78 -2.5858757999999993E5
78 77 -2.6038857999999993E5
78 78 5.1897615999999986E5
78 79 -2.5858757999999993E5
79 78 -2.6038857999999993E5
79 79 5.1897615999999986E5
79 80 -2.5858757999999993E5
80 79 -2.6038857999999993E5
80 80 5.1897615999999986E5
80 81 -2.5858757999999993E5
81 80 -2.6038857999999993E5
81 81 5.1897615999999986E5
81 82 -2.5858757999999993E5
82 81 -2.6038857999999993E5
82 82 5.1897615999999986E5
82 83 -2.5858757999999993E5
83 82 -2.6038857999999993E5
83 83 5.1897615999999986E5
83 84 -2.5858757999999993E5
84 83 -2.6038857999999993E5
84 84 5.1897615999999986E5
84 85 -2.5858757999999993E5
85 84 -2.6038857999999993E5
85 85 5.1897615999999986E5
85 86 -2.5858757999999993E5
86 85 -2.6038857999999993E5
86 86 5.1897615999999986E5
86 87 -2.5858757999999993E5
87 86 -2.6038857999999993E5
87 87 5.1897615999999986E5
87 88 -2.5858757999999993E5
88 87 -2.6038857999999993E5
88 88 5.1897615999999986E5
88 89 -2.5858757999999993E5
89 88 -2.6038857999999993E5
89 89 5.1897615999999986E5
89 90 -2.5858757999999993E5
90 89 -2.6038857999999993E5
90 90 5.1897615999999986E5
90 91 -2.5858757999999993E5
91 90 -2.6038857999999993E5
91 91 5.1897615999999986E5
91 92 -2.5858757999999993E5
92 91 -2.6038857999999993E5
92 92 5.1897615999999986E5
92 93 -2.5858757999999993E5
93 92 -2.6038857999999993E5
93 93 5.1897615999999986E5
93 94 -2.5858757999999993E5
94 93 -2.6038857999999993E5
94 94 5.1897615999999986E5
94 95 -2.5858757999999993E5
95 94 -2.6038857999999993E5
95 95 5.1897615999999986E5
95 96 -2.5858757999999993E5
96 95 -2.6038857999999993E5
96 96 5.1897615999999986E5
96 97 -2.5858757999999993E5
97 96 -2.6038857999999993E5
97 97 5.1897615999999986E5
97 98 -2.5858757999999993E5
98 97 -2.6038857999999993E5
98 98 5.1897615999999986E5
98 99 -2.5858757999999993E5
99 98 -2.6038857999999993E5
99 99 5.1897615999999986E5
99 100 -2.5858757999999993E5
100 99 -2.6038857999999993E5
100 100 5.1897615999999986E5
100 101 -2.5858757999999993E5
101 100 -2.6038857999999993E5
101 101 5.1897615999999986E5
101 102 -2.5858757999999993E5
102 101 -2.6038857999999993E5
102 102 5.1897615999999986E5
102 103 -2.5858757999999993E5
103 102 -2.6038857999999993E5
103 103 5.1897615999999986E5
103 104 -2.5858757999999993E5
104 103 -2.6038857999999993E5
104 104 5.1897615999999986E5
104 105 -2.5858757999999993E5
105 104 -2.6038857999999993E5
105 105 5.1897615999999986E5
105 106 -2.5858757999999993E5
106 105 -2.6038857999999993E5
106 106 5.1897615999999986E5
106 107 -2.5858757999999993E5
107 106 -2.6038857999999993E5
107 107 5.1897615999999986E5
107 108 -2.5858757999999993E5
108 107 -2.6038857999999993E5
108 108 5.1897615999999986E5
108 109 -2.5858757999999993E5
109 108 -2.6038857999999993E5
109 109 5.1897615999999986E5
109 110 -2.5858757999999993E5
110 109 -2.6038857999999993E5
110 110 5.1897615999999986E5
110 111 -2.5858757999999993E5
111 110 -2.6038857999999993E5
111 111 5.1897615999999986E5
111 112 -2.5858757999999993E5
112 111 -2.6038857999999993E5
112 112 5.1897615999999986E5
112 113 -2.5858757999999993E5
113 112 -2.6038857999999993E5
113 113 5.1897615999999986E5
113 114 -2.5858757999999993E5
114 113 -2.6038857999999993E5
114 114 5.1897615999999986E5
114 115 -2.5858757999999993E5
115 114 -2.6038857999999993E5
115 115 5.1897615999999986E5
115 116 -2.5858757999999993E5
116 115 -2.6038857999999993E5
116 116 5.1897615999999986E5
116 117 -2.5858757999999993E5
117 116 -2.6038857999999993E5
117 117 5.1897615999999986E5
117 118 -2.5858757999999993E5
118 117 -2.6038857999999993E5
118 118 5.1897615999999986E5
118 119 -2.5858757999999993E5
119 118 -2.6038857999999993E5
119 119 5.1897615999999986E5
119 120 -2.5858757999999993E5
120 119 -2.6038857999999993E5
120 120 5.1897615999999986E5
120 121 -2.5858757999999993E5
121 120 -2.6038857999999993E5
121 121 5.1897615999999986E5
121 122 -2.5858757999999993E5
122 121 -2.6038857999999993E5
122 122 5.1897615999999986E5
122 123 -2.5858757999999993E5
123 122 -2.6038857999999993E5
123 123 5.1897615999999986E5
123 124 -2.5858757999999993E5
124 123 -2.6038857999999993E5
124 124 5.1897615999999986E5
124 125 -2.5858757999999993E5
125 124 -2.6038857999999993E5
125 125 5.1897615999999986E5
125 126 -2.5858757999999993E5
126 125 -2.6038857999999993E5
126 126 5.1897615999999986E5
126 127 -2.5858757999999993E5
127 126 -2.6038857999999993E5
127 127 5.1897615999999986E5
127 128 -2.5858757999999993E5
128 127 -2.6038857999999993E5
128 128 5.1897615999999986E5
128 129 -2.5858757999999993E5
129 128 -2.6038857999999993E5
129 129 5.1897615999999986E5
129 130 -2.5858757999999993E5
130 129 -2.6038857999999993E5
130 130 5.1897615999999986E5
130 131 -2.5858757999999993E5
131 130 -2.6038857999999993E5
131 131 5.1897615999999986E5
131 132 -2.5858757999999993E5
132 131 -2.6038857999999993E5
132 132 5.1897615999999986E5
132 133 -2.5858757999999993E5
133 132 -2.6038857999999993E5
133 133 5.1897615999999986E5
133 134 -2.5858757999999993E5
134 133 -2.6038857999999993E5
134 134 5.1897615999999986E5
134 135 -2.5858757999999993E5
135 134 -2.6038857999999993E5
135 135 5.1897615999999986E5
135 136 -2.5858757999999993E5
136 135 -2.6038857999999993E5
136 136 5.1897615999999986E5
136 137 -2.5858757999999993E5
137 136 -2.6038857999999993E5
137 137 5.1897615999999986E5
137 138 -2.5858757999999993E5
138 137 -2.6038857999999993E5
138 138 5.1897615999999986E5
138 139 -2.5858757999999993E5
139 138 -2.6038857999999993E5
139 139 5.1897615999999986E5
139 140 -2.5858757999999993E5
140 139 -2.6038857999999993E5
140 140 5.1897615999999986E5
140 141 -2.5858757999999993E5
141 140 -2.6038857999999993E5
141 141 5.1897615999999986E5
141 142 -2.5858757999999993E5
142 141 -2.6038857999999993E5
142 142 5.1897615999999986E5
142 143 -2.5858757999999993E5
143 142 -2.6038857999999993E5
143 143 5.1897615999999986E5
143 144 -2.5858757999999993E5
144 143 -2.6038857999999993E5
144 144 5.1897615999999986E5
144 145 -2.5858757999999993E5
145 144 -2.6038857999999993E5
145 145 5.1897615999999986E5
145 146 -2.5858757999999993E5
146 145 -2.6038857999999993E5
146 146 5.1897615999999986E5
146 147 -2.5858757999999993E5
147 146 -2.6038857999999993E5
147 147 5.1897615999999986E5
147 148 -2.5858757999999993E5
148 147 -2.6038857999999993E5
148 148 5.1897615999999986E5
148 149 -2.5858757999999993E5
149 148 -2.6038857999999993E5
149 149 5.1897615999999986E5
149 150 -2.5858757999999993E5
150 149 -2.6038857999999993E5
150 150 5.1897615999999986E5
150 151 -2.5858757999999993E5
151 150 -2.6038857999999993E5
151 151 5.1897615999999986E5
151 152 -2.5858757999999993E5
152 151 -2.6038857999999993E5
152 152 5.1897615999999986E5
152 153 -2.5858757999999993E5
153 152 -2.6038857999999993E5
153 153 5.1897615999999986E5
153 154 -2.5858757999999993E5
154 153 -2.6038857999999993E5
154 154 5.1897615999999986E5
154 155 -2.5858757999999993E5
155 154 -2.6038857999999993E5
155 155 5.1897615999999986E5
155 156 -2.5858757999999993E5
156 155 -2.6038857999999993E5
156 156 5.1897615999999986E5
156 157 -2.5858757999999993E5
157 156 -2.6038857999999993E5
157 157 5.1897615999999986E5
157 158 -2.5858757999999993E5
158 157 -2.6038857999999993E5
158 158 5.1897615999999986E5
158 159 -2.5858757999999993E5
159 158 -2.6038857999999993E5
159 159 5.1897615999999986E5
159 160 -2.5858757999999993E5
160 159 -2.6038857999999993E5
160 160 5.1897615999999986E5
160 161 -2.5858757999999993E5
161 160 -2.6038857999999993E5
161 161 5.1897615999999986E5
161 162 -2.5858757999999993E5
162 161 -2.6038857999999993E5
162 162 5.1897615999999986E5
162 163 -2.5858757999999993E5
163 162 -2.6038857999999993E5
163 163 5.1897615999999986E5
163 164 -2.5858757999999993E5
164 163 -2.6038857999999993E5
164 164 5.1897615999999986E5
164 165 -2.5858757999999993E5
165 164 -2.6038857999999993E5
165 165 5.1897615999999986E5
165 166 -2.5858757999999993E5
166 165 -2.6038857999999993E5
166 166 5.1897615999999986E5
166 167 -2.5858757999999993E5
167 166 -2.6038857999999993E5
167 167 5.1897615999999986E5
167 168 -2.5858757999999993E5
168 167 -2.6038857999999993E5
168 168 5.1897615999999986E5
168 169 -2.5858757999999993E5
169 168 -2.6038857999999993E5
169 169 5.1897615999999986E5
169 170 -2.5858757999999993E5
170 169 -2.6038857999999993E5
170 170 5.1897615999999986E5
170 171 -2.5858757999999993E5
171 170 -2.6038857999999993E5
171 171 5.1897615999999986E5
171 172 -2.5858757999999993E5
172 171 -2.6038857999999993E5
172 172 5.1897615999999986E5
172 173 -2.5858757999999993E5
173 172 -2.6038857999999993E5
173 173 5.1897615999999986E5
173 174 -2.5858757999999993E5
174 173 -2.6038857999999993E5
174 174 5.1897615999999986E5
174 175 -2.5858757999999993E5
175 174 -2.6038857999999993E5
175 175 5.1897615999999986E5
175 176 -2.5858757999999993E5
176 175 -2.6038857999999993E5
176 176 5.1897615999999986E5
176 177 -2.5858757999999993E5
177 176 -2.6038857999999993E5
177 177 5.1897615999999986E5
177 178 -2.5858757999999993E5
178 177 -2.6038857999999993E5
178 178 5.1897615999999986E5
178 179 -2.5858757999999993E5
179 178 -2.6038857999999993E5
179 179 5.1897615999999986E5
179 180 -2.5858757999999993E5
180 179 -2.6038857999999993E5
180 180 5.1897615999999986E5
180 181 -2.5858757999999993E5
181 180 -2.6038857999999993E5
181 181 5.1897615999999986E5
181 182 -2.5858757999999993E5
182 181 -2.6038857999999993E5
182 182 5.1897615999999986E5
182 183 -2.5858757999999993E5
183 182 -2.6038857999999993E5
183 183 5.1897615999999986E5
183 184 -2.5858757999999993E5
184 183 -2.6038857999999993E5
184 184 5.1897615999999986E5
184 185 -2.5858757999999993E5
185 184 -2.6038857999999993E5
185 185 5.1897615999999986E5
185 186 -2.5858757999999993E5
186 185 -2.6038857999999993E5
186 186 5.1897615999999986E5
186 187 -2.5858757999999993E5
187 186 -2.6038857999999993E5
187 187 5.1897615999999986E5
187 188 -2.5858757999999993E5
188 187 -2.6038857999999993E5
188 188 5.1897615999999986E5
188 189 -2.5858757999999993E5
189 188 -2.6038857999999993E5
189 189 5.1897615999999986E5
189 190 -2.5858757999999993E5
190 189 -2.6038857999999993E5
190 190 5.1897615999999986E5
190 191 -2.5858757999999993E5
191 190 -2.6038857999999993E5
191 191 5.1897615999999986E5
191 192 -2.5858757999999993E5
192 191 -2.6038857999999993E5
192 192 5.1897615999999986E5
192 193 -2.5858757999999993E5
193 192 -2.6038857999999993E5
193 193 5.1897615999999986E5
193 194 -2.5858757999999993E5
194 193 -2.6038857999999993E5
194 194 5.1897615999999986E5
194 195 -2.5858757999999993E5
195 194 -2.6038857999999993E5
195 195 5.1897615999999986E5
195 196 -2.5858757999999993E5
196 195 -2.6038857999999993E5
196 196 5.1897615999999986E5
196 197 -2.5858757999999993E5
197 196 -2.6038857999999993E5
197 197 5.1897615999999986E5
197 198 -2.5858757999999993E5
198 197 -2.6038857999999993E5
198 198 5.1897615999999986E5
198 199 -2.5858757999999993E5
199 198 -2.6038857999999993E5
199 199 5.1897615999999986E5
199 200 -2.5858757999999993E5
200 199 -2.6038857999999993E5
200 200 5.1897615999999986E5
200 201 -2.5858757999999993E5
201 200 -2.6038857999999993E5
201 201 5.1897615999999986E5
201 202 -2.5858757999999993E5
202 201 -2.6038857999999993E5
202 202 5.1897615999999986E5
202 203 -2.5858757999999993E5
203 202 -2.6038857999999993E5
203 203 5.1897615999999986E5
203 204 -2.5858757999999993E5
204 203 -2.6038857999999993E5
204 204 5.1897615999999986E5
204 205 -2.5858757999999993E5
205 204 -2.6038857999999993E5
205 205 5.1897615999999986E5
205 206 -2.5858757999999993E5
206 205 -2.6038857999999993E5
206 206 5.1897615999999986E5
206 207 -2.5858757999999993E5
207 206 -2.6038857999999993E5
207 207 5.1897615999999986E5
207 208 -2.5858757999999993E5
208 207 -2.6038857999999993E5
208 208 5.1897615999999986E5
208 209 -2.5858757999999993E5
209 208 -2.6038857999999993E5
209 209 5.1897615999999986E5
209 210 -2.5858757999999993E5
210 209 -2.6038857999999993E5
210 210 5.1897615999999986E5
210 211 -2.5858757999999993E5
211 210 -2.6038857999999993E5
211 211 5.1897615999999986E5
211 212 -2.5858757999999993E5
212 211 -2.6038857999999993E5
212 212 5.1897615999999986E5
212 213 -2.5858757999999993E5
213 212 -2.6038857999999993E5
213 213 5.1897615999999986E5
213 214 -2.5858757999999993E5
214 213 -2.6038857999999993E5
214 214 5.1897615999999986E5
214 215 -2.5858757999999993E5
215 214 -2.6038857999999993E5
215 215 5.1897615999999986E5
215 216 -2.5858757999999993E5
216 215 -2.6038857999999993E5
216 216 5.1897615999999986E5
216 217 -2.5858757999999993E5
217 216 -2.6038857999999993E5
217 217 5.1897615999999986E5
217 218 -2.5858757999999993E5
218 217 -2.6038857999999993E5
218 218 5.1897615999999986E5
218 219 -2.5858757999999993E5
219 218 -2.6038857999999993E5
219 219 5.1897615999999986E5
219 220 -2.5858757999999993E5
220 219 -2.6038857999999993E5
220 220 5.1897615999999986E5
220 221 -2.5858757999999993E5
221 220 -2.6038857999999993E5
221 221 5.1897615999999986E5
221 222 -2.5858757999999993E5
222 221 -2.6038857999999993E5
222 222 5.1897615999999986E5
222 223 -2.5858757999999993E5
223 222 -2.6038857999999993E5
223 223 5.1897615999999986E5
223 224 -2.5858757999999993E5
224 223 -2.6038857999999993E5
224 224 5.1897615999999986E5
224 225 -2.5858757999999993E5
225 224 -2.6038857999999993E5
225 225 5.1897615999999986E5
225 226 -2.5858757999999993E5
226 225 -2.6038857999999993E5
226 226 5.1897615999999986E5
226 227 -2.5858757999999993E5
227 226 -2.6038857999999993E5
227 227 5.1897615999999986E5
227 228 -2.5858757999999993E5
228 227 -2.6038857999999993E5
228 228 5.1897615999999986E5
228 229 -2.5858757999999993E5
229 228 -2.6038857999999993E5
229 229 5.1897615999999986E5
229 230 -2.5858757999999993E5
230 229 -2.6038857999999993E5
230 230 5.1897615999999986E5
230 231 -2.5858757999999993E5
231 230 -2.6038857999999993E5
231 231 5.1897615999999986E5
231 232 -2.5858757999999993E5
232 231 -2.6038857999999993E5
232 232 5.1897615999999986E5
232 233 -2.5858757999999993E5
233 232 -2.6038857999999993E5
233 233 5.1897615999999986E5
233 234 -2.5858757999999993E5
234 233 -2.6038857999999993E5
234 234 5.1897615999999986E5
234 235 -2.5858757999999993E5
235 234 -2.6038857999999993E5
235 235 5.1897615999999986E5
235 236 -2.5858757999999993E5
236 235 -2.6038857999999993E5
236 236 5.1897615999999986E5
236 237 -2.5858757999999993E5
237 236 -2.6038857999999993E5
237 237 5.1897615999999986E5
237 238 -2.5858757999999993E5
238 237 -2.6038857999999993E5
238 238 5.1897615999999986E5
238 239 -2.5858757999999993E5
239 238 -2.6038857999999993E5
239 239 5.1897615999999986E5
239 240 -2.5858757999999993E5
240 239 -2.6038857999999993E5
240 240 5.1897615999999986E5
240 241 -2.5858757999999993E5
241 240 -2.6038857999999993E5
241 241 5.1897615999999986E5
241 242 -2.5858757999999993E5
242 241 -2.6038857999999993E5
242 242 5.1897615999999986E5
242 243 -2.5858757999999993E5
243 242 -2.6038857999999993E5
243 243 5.1897615999999986E5
243 244 -2.5858757999999993E5
244 243 -2.6038857999999993E5
244 244 5.1897615999999986E5
244 245 -2.5858757999999993E5
245 244 -2.6038857999999993E5
245 245 5.1897615999999986E5
245 246 -2.5858757999999993E5
246 245 -2.6038857999999993E5
246 246 5.1897615999999986E5
246 247 -2.5858757999999993E5
247 246 -2.6038857999999993E5
247 247 5.1897615999999986E5
247 248 -2.5858757999999993E5
248 247 -2.6038857999999993E5
248 248 5.1897615999999986E5
248 249 -2.5858757999999993E5
249 248 -2.6038857999999993E5
249 249 5.1897615999999986E5
249 250 -2.5858757999999993E5
250 249 -2.6038857999999993E5
250 250 5.1897615999999986E5
250 251 -2.5858757999999993E5
251 250 -2.6038857999999993E5
251 251 5.1897615999999986E5
251 252 -2.5858757999999993E5
252 251 -2.6038857999999993E5
252 252 5.1897615999999986E5
252 253 -2.5858757999999993E5
253 252 -2.6038857999999993E5
253 253 5.1897615999999986E5
253 254 -2.5858757999999993E5
254 253 -2.6038857999999993E5
254 254 5.1897615999999986E5
254 255 -2.5858757999999993E5
255 254 -2.6038857999999993E5
255 255 5.1897615999999986E5
255 256 -2.5858757999999993E5
256 255 -2.6038857999999993E5
256 256 5.1897615999999986E5
256 257 -2.5858757999999993E5
257 256 -2.6038857999999993E5
257 257 5.1897615999999986E5
257 258 -2.5858757999999993E5
258 257 -2.6038857999999993E5
258 258 5.1897615999999986E5
258 259 -2.5858757999999993E5
259 258 -2.6038857999999993E5
259 259 5.1897615999999986E5
259 260 -2.5858757999999993E5
260 259 -2.6038857999999993E5
260 260 5.1897615999999986E5
260 261 -2.5858757999999993E5
261 260 -2.6038857999999993E5
261 261 5.1897615999999986E5
261 262 -2.5858757999999993E5
262 261 -2.6038857999999993E5
262 262 5.1897615999999986E5
262 263 -2.5858757999999993E5
263 262 -2.6038857999999993E5
263 263 5.1897615999999986E5
263 264 -2.5858757999999993E5
264 263 -2.6038857999999993E5
264 264 5.1897615999999986E5
264 265 -2.5858757999999993E5
265 264 -2.6038857999999993E5
265 265 5.1897615999999986E5
265 266 -2.5858757999999993E5
266 265 -2.6038857999999993E5
266 266 5.1897615999999986E5
266 267 -2.5858757999999993E5
267 266 -2.6038857999999993E5
267 267 5.1897615999999986E5
267 268 -2.5858757999999993E5
268 267 -2.6038857999999993E5
268 268 5.1897615999999986E5
268 269 -2.5858757999999993E5
269 268 -2.6038857999999993E5
269 269 5.1897615999999986E5
269 270 -2.5858757999999993E5
270 269 -2.6038857999999993E5
270 270 5.1897615999999986E5
270 271 -2.5858757999999993E5
271 270 -2.6038857999999993E5
271 271 5.1897615999999986E5
271 272 -2.5858757999999993E5
272 271 -2.6038857999999993E5
272 272 5.1897615999999986E5
272 273 -2.5858757999999993E5
273 272 -2.6038857999999993E5
273 273 5.1897615999999986E5
273 274 -2.5858757999999993E5
274 273 -2.6038857999999993E5
274 274 5.1897615999999986E5
274 275 -2.5858757999999993E5
275 274 -2.6038857999999993E5
275 275 5.1897615999999986E5
275 276 -2.5858757999999993E5
276 275 -2.6038857999999993E5
276 276 5.1897615999999986E5
276 277 -2.5858757999999993E5
277 276 -2.6038857999999993E5
277 277 5.1897615999999986E5
277 278 -2.5858757999999993E5
278 277 -2.6038857999999993E5
278 278 5.1897615999999986E5
278 279 -2.5858757999999993E5
279 278 -2.6038857999999993E5
279 279 5.1897615999999986E5
279 280 -2.5858757999999993E5
280 279 -2.6038857999999993E5
280 280 5.1897615999999986E5
280 281 -2.5858757999999993E5
281 280 -2.6038857999999993E5
281 281 5.1897615999999986E5
281 282 -2.5858757999999993E5
282 281 -2.6038857999999993E5
282 282 5.1897615999999986E5
282 283 -2.5858757999999993E5
283 282 -2.6038857999999993E5
283 283 5.1897615999999986E5
283 284 -2.5858757999999993E5
284 283 -2.6038857999999993E5
284 284 5.1897615999999986E5
284 285 -2.5858757999999993E5
285 284 -2.6038857999999993E5
285 285 5.1897615999999986E5
285 286 -2.5858757999999993E5
286 285 -2.6038857999999993E5
286 286 5.1897615999999986E5
286 287 -2.5858757999999993E5
287 286 -2.6038857999999993E5
287 287 5.1897615999999986E5
287 288 -2.5858757999999993E5
288 287 -2.6038857999999993E5
288 288 5.1897615999999986E5
288 289 -2.5858757999999993E5
289 288 -2.6038857999999993E5
289 289 5.1897615999999986E5
289 290 -2.5858757999999993E5
290 289 -2.6038857999999993E5
290 290 5.1897615999999986E5
290 291 -2.5858757999999993E5
291 290 -2.6038857999999993E5
291 291 5.1897615999999986E5
291 292 -2.5858757999999993E5
292 291 -2.6038857999999993E5
292 292 5.1897615999999986E5
292 293 -2.5858757999999993E5
293 292 -2.6038857999999993E5
293 293 5.1897615999999986E5
293 294 -2.5858757999999993E5
294 293 -2.6038857999999993E5
294 294 5.1897615999999986E5
294 295 -2.5858757999999993E5
295 294 -2.6038857999999993E5
295 295 5.1897615999999986E5
295 296 -2.5858757999999993E5
296 295 -2.6038857999999993E5
296 296 5.1897615999999986E5
296 297 -2.5858757999999993E5
297 296 -2.6038857999999993E5
297 297 5.1897615999999986E5
297 298 -2.5858757999999993E5
298 297 -2.6038857999999993E5
298 298 5.1897615999999986E5
298 299 -2.5858757999999993E5
299 298 -2.6038857999999993E5
299 299 5.1897615999999986E5
299 300 -2.5858757999999993E5
300 299 -2.6038857999999993E5
300 300 5.1897615999999986E5
300 301 -2.5858757999999993E5
301 300 -2.6038857999999993E5
301 301 5.1897615999999986E5
301 302 -2.5858757999999993E5
302 301 -2.6038857999999993E5
302 302 5.1897615999999986E5
302 303 -2.5858757999999993E5
303 302 -2.6038857999999993E5
303 303 5.1897615999999986E5
303 304 -2.5858757999999993E5
304 303 -2.6038857999999993E5
304 304 5.1897615999999986E5
304 305 -2.5858757999999993E5
305 304 -2.6038857999999993E5
305 305 5.1897615999999986E5
305 306 -2.5858757999999993E5
306 305 -2.6038857999999993E5
306 306 5.1897615999999986E5
306 307 -2.5858757999999993E5
307 306 -2.6038857999999993E5
307 307 5.1897615999999986E5
307 308 -2.5858757999999993E5
308 307 -2.6038857999999993E5
308 308 5.1897615999999986E5
308 309 -2.5858757999999993E5
309 308 -2.6038857999999993E5
309 309 5.1897615999999986E5
309 310 -2.5858757999999993E5
310 309 -2.6038857999999993E5
310 310 5.1897615999999986E5
310 311 -2.5858757999999993E5
311 310 -2.6038857999999993E5
311 311 5.1897615999999986E5
311 312 -2.5858757999999993E5
312 311 -2.6038857999999993E5
312 312 5.1897615999999986E5
312 313 -2.5858757999999993E5
313 312 -2.6038857999999993E5
313 313 5.1897615999999986E5
313 314 -2.5858757999999993E5
314 313 -2.6038857999999993E5
314 314 5.1897615999999986E5
314 315 -2.5858757999999993E5
315 314 -2.6038857999999993E5
315 315 5.1897615999999986E5
315 316 -2.5858757999999993E5
316 315 -2.6038857999999993E5
316 316 5.1897615999999986E5
316 317 -2.5858757999999993E5
317 316 -2.6038857999999993E5
317 317 5.1897615999999986E5
317 318 -2.5858757999999993E5
318 317 -2.6038857999999993E5
318 318 5.1897615999999986E5
318 319 -2.5858757999999993E5
319 318 -2.6038857999999993E5
319 319 5.1897615999999986E5
319 320 -2.5858757999999993E5
320 319 -2.6038857999999993E5
320 320 5.1897615999999986E5
320 321 -2.5858757999999993E5
321 320 -2.6038857999999993E5
321 321 5.1897615999999986E5
321 322 -2.5858757999999993E5
322 321 -2.6038857999999993E5
322 322 5.1897615999999986E5
322 323 -2.5858757999999993E5
323 322 -2.6038857999999993E5
323 323 5.1897615999999986E5
323 324 -2.5858757999999993E5
324 323 -2.6038857999999993E5
324 324 5.1897615999999986E5
324 325 -2.5858757999999993E5
325 324 -2.6038857999999993E5
325 325 5.1897615999999986E5
325 326 -2.5858757999999993E5
326 325 -2.6038857999999993E5
326 326 5.1897615999999986E5
326 327 -2.5858757999999993E5
327 326 -2.6038857999999993E5
327 327 5.1897615999999986E5
327 328 -2.5858757999999993E5
328 327 -2.6038857999999993E5
328 328 5.1897615999999986E5
328 329 -2.5858757999999993E5
329 328 -2.6038857999999993E5
329 329 5.1897615999999986E5
329 330 -2.5858757999999993E5
330 329 -2.6038857999999993E5
330 330 5.1897615999999986E5
330 331 -2.5858757999999993E5
331 330 -2.6038857999999993E5
331 331 5.1897615999999986E5
331 332 -2.5858757999999993E5
332 331 -2.6038857999999993E5
332 332 5.1897615999999986E5
332 333 -2.5858757999999993E5
333 332 -2.6038857999999993E5
333 333 5.1897615999999986E5
333 334 -2.5858757999999993E5
334 333 -2.6038857999999993E5
334 334 5.1897615999999986E5
334 335 -2.5858757999999993E5
335 334 -2.6038857999999993E5
335 335 5.1897615999999986E5
335 336 -2.5858757999999993E5
336 335 -2.6038857999999993E5
336 336 5.1897615999999986E5
336 337 -2.5858757999999993E5
337 336 -2.6038857999999993E5
337 337 5.1897615999999986E5
337 338 -2.5858757999999993E5
338 337 -2.6038857999999993E5
338 338 5.1897615999999986E5
338 339 -2.5858757999999993E5
339 338 -2.6038857999999993E5
339 339 5.1897615999999986E5
339 340 -2.5858757999999993E5
340 339 -2.6038857999999993E5
340 340 5.1897615999999986E5
340 341 -2.5858757999999993E5
341 340 -2.6038857999999993E5
341 341 5.1897615999999986E5
341 342 -2.5858757999999993E5
342 341 -2.6038857999999993E5
342 342 5.1897615999999986E5
342 343 -2.5858757999999993E5
343 342 -2.6038857999999993E5
343 343 5.1897615999999986E5
343 344 -2.5858757999999993E5
344 343 -2.6038857999999993E5
344 344 5.1897615999999986E5
344 345 -2.5858757999999993E5
345 344 -2.6038857999999993E5
345 345 5.1897615999999986E5
345 346 -2.5858757999999993E5
346 345 -2.6038857999999993E5
346 346 5.1897615999999986E5
346 347 -2.5858757999999993E5
347 346 -2.6038857999999993E5
347 347 5.1897615999999986E5
347 348 -2.5858757999999993E5
348 347 -2.6038857999999993E5
348 348 5.1897615999999986E5
348 349 -2.5858757999999993E5
349 348 -2.6038857999999993E5
349 349 5.1897615999999986E5
349 350 -2.5858757999999993E5
350 349 -2.6038857999999993E5
350 350 5.1897615999999986E5
350 351 -2.5858757999999993E5
351 350 -2.6038857999999993E5
351 351 5.1897615999999986E5
351 352 -2.5858757999999993E5
352 351 -2.6038857999999993E5
352 352 5.1897615999999986E5
352 353 -2.5858757999999993E5
353 352 -2.6038857999999993E5
353 353 5.1897615999999986E5
353 354 -2.5858757999999993E5
354 353 -2.6038857999999993E5
354 354 5.1897615999999986E5
354 355 -2.5858757999999993E5
355 354 -2.6038857999999993E5
355 355 5.1897615999999986E5
355 356 -2.5858757999999993E5
356 355 -2.6038857999999993E5
356 356 5.1897615999999986E5
356 357 -2.5858757999999993E5
357 356 -2.6038857999999993E5
357 357 5.1897615999999986E5
357 358 -2.5858757999999993E5
358 357 -2.6038857999999993E5
358 358 5.1897615999999986E5
358 359 -2.5858757999999993E5
359 358 -2.6038857999999993E5
359 359 5.1897615999999986E5
359 360 -2.5858757999999993E5
360 359 -2.6038857999999993E5
360 360 5.1897615999999986E5
360 361 -2.5858757999999993E5
361 360 -2.6038857999999993E5
361 361 5.1897615999999986E5
361 362 -2.5858757999999993E5
362 361 -2.6038857999999993E5
362 362 5.1897615999999986E5
362 363 -2.5858757999999993E5
363 362 -2.6038857999999993E5
363 363 5.1897615999999986E5
363 364 -2.5858757999999993E5
364 363 -2.6038857999999993E5
364 364 5.1897615999999986E5
364 365 -2.5858757999999993E5
365 364 -2.6038857999999993E5
365 365 5.1897615999999986E5
365 366 -2.5858757999999993E5
366 365 -2.6038857999999993E5
366 366 5.1897615999999986E5
366 367 -2.5858757999999993E5
367 366 -2.6038857999999993E5
367 367 5.1897615999999986E5
367 368 -2.5858757999999993E5
368 367 -2.6038857999999993E5
368 368 5.1897615999999986E5
368 369 -2.5858757999999993E5
369 368 -2.6038857999999993E5
369 369 5.1897615999999986E5
369 370 -2.5858757999999993E5
370 369 -2.6038857999999993E5
370 370 5.1897615999999986E5
370 371 -2.5858757999999993E5
371 370 -2.6038857999999993E5
371 371 5.1897615999999986E5
371 372 -2.5858757999999993E5
372 371 -2.6038857999999993E5
372 372 5.1897615999999986E5
372 373 -2.5858757999999993E5
373 372 -2.6038857999999993E5
373 373 5.1897615999999986E5
373 374 -2.5858757999999993E5
374 373 -2.6038857999999993E5
374 374 5.1897615999999986E5
374 375 -2.5858757999999993E5
375 374 -2.6038857999999993E5
375 375 5.1897615999999986E5
375 376 -2.5858757999999993E5
376 375 -2.6038857999999993E5
376 376 5.1897615999999986E5
376 377 -2.5858757999999993E5
377 376 -2.6038857999999993E5
377 377 5.1897615999999986E5
377 378 -2.5858757999999993E5
378 377 -2.6038857999999993E5
378 378 5.1897615999999986E5
378 379 -2.5858757999999993E5
379 378 -2.6038857999999993E5
379 379 5.1897615999999986E5
379 380 -2.5858757999999993E5
380 379 -2.6038857999999993E5
380 380 5.1897615999999986E5
380 381 -2.5858757999999993E5
381 380 -2.6038857999999993E5
381 381 5.1897615999999986E5
381 382 -2.5858757999999993E5
382 381 -2.6038857999999993E5
382 382 5.1897615999999986E5
382 383 -2.5858757999999993E5
383 382 -2.6038857999999993E5
383 383 5.1897615999999986E5
383 384 -2.5858757999999993E5
384 383 -2.6038857999999993E5
384 384 5.1897615999999986E5
384 385 -2.5858757999999993E5
385 384 -2.6038857999999993E5
385 385 5.1897615999999986E5
385 386 -2.5858757999999993E5
386 385 -2.6038857999999993E5
386 386 5.1897615999999986E5
386 387 -2.5858757999999993E5
387 386 -2.6038857999999993E5
387 387 5.1897615999999986E5
387 388 -2.5858757999999993E5
388 387 -2.6038857999999993E5
388 388 5.1897615999999986E5
388 389 -2.5858757999999993E5
389 388 -2.6038857999999993E5
389 389 5.1897615999999986E5
389 390 -2.5858757999999993E5
390 389 -2.6038857999999993E5
390 390 5.1897615999999986E5
390 391 -2.5858757999999993E5
391 390 -2.6038857999999993E5
391 391 5.1897615999999986E5
391 392 -2.5858757999999993E5
392 391 -2.6038857999999993E5
392 392 5.1897615999999986E5
392 393 -2.5858757999999993E5
393 392 -2.6038857999999993E5
393 393 5.1897615999999986E5
393 394 -2.5858757999999993E5
394 393 -2.6038857999999993E5
394 394 5.1897615999999986E5
394 395 -2.5858757999999993E5
395 394 -2.6038857999999993E5
395 395 5.1897615999999986E5
395 396 -2.5858757999999993E5
396 395 -2.6038857999999993E5
396 396 5.1897615999999986E5
396 397 -2.5858757999999993E5
397 396 -2.6038857999999993E5
397 397 5.1897615999999986E5
397 398 -2.5858757999999993E5
398 397 -2.6038857999999993E5
398 398 5.1897615999999986E5
398 399 -2.5858757999999993E5
399 398 -2.6038857999999993E5
399 399 5.1897615999999986E5
399 400 -2.5858757999999993E5
400 399 -2.6038857999999993E5
400 400 5.1897615999999986E5
400 401 -2.5858757999999993E5
401 400 -2.6038857999999993E5
401 401 5.1897615999999986E5
401 402 -2.5858757999999993E5
402 401 -2.6038857999999993E5
402 402 5.1897615999999986E5
402 403 -2.5858757999999993E5
403 402 -2.6038857999999993E5
403 403 5.1897615999999986E5
403 404 -2.5858757999999993E5
404 403 -2.6038857999999993E5
404 404 5.1897615999999986E5
404 405 -2.5858757999999993E5
405 404 -2.6038857999999993E5
405 405 5.1897615999999986E5
405 406 -2.5858757999999993E5
406 405 -2.6038857999999993E5
406 406 5.1897615999999986E5
406 407 -2.5858757999999993E5
407 406 -2.6038857999999993E5
407 407 5.1897615999999986E5
407 408 -2.5858757999999993E5
408 407 -2.6038857999999993E5
408 408 5.1897615999999986E5
408 409 -2.5858757999999993E5
409 408 -2.6038857999999993E5
409 409 5.1897615999999986E5
409 410 -2.5858757999999993E5
410 409 -2.6038857999999993E5
410 410 5.1897615999999986E5
410 411 -2.5858757999999993E5
411 410 -2.6038857999999993E5
411 411 5.1897615999999986E5
411 412 -2.5858757999999993E5
412 411 -2.6038857999999993E5
412 412 5.1897615999999986E5
412 413 -2.5858757999999993E5
413 412 -2.6038857999999993E5
413 413 5.1897615999999986E5
413 414 -2.5858757999999993E5
414 413 -2.6038857999999993E5
414 414 5.1897615999999986E5
414 415 -2.5858757999999993E5
415 414 -2.6038857999999993E5
415 415 5.1897615999999986E5
415 416 -2.5858757999999993E5
416 415 -2.6038857999999993E5
416 416 5.1897615999999986E5
416 417 -2.5858757999999993E5
417 416 -2.6038857999999993E5
417 417 5.1897615999999986E5
417 418 -2.5858757999999993E5
418 417 -2.6038857999999993E5
418 418 5.1897615999999986E5
418 419 -2.5858757999999993E5
419 418 -2.6038857999999993E5
419 419 5.1897615999999986E5
419 420 -2.5858757999999993E5
420 419 -2.6038857999999993E5
420 420 5.1897615999999986E5
420 421 -2.5858757999999993E5
421 420 -2.6038857999999993E5
421 421 5.1897615999999986E5
421 422 -2.5858757999999993E5
422 421 -2.6038857999999993E5
422 422 5.1897615999999986E5
422 423 -2.5858757999999993E5
423 422 -2.6038857999999993E5
423 423 5.1897615999999986E5
423 424 -2.5858757999999993E5
424 423 -2.6038857999999993E5
424 424 5.1897615999999986E5
424 425 -2.5858757999999993E5
425 424 -2.6038857999999993E5
425 425 5.1897615999999986E5
425 426 -2.5858757999999993E5
426 425 -2.6038857999999993E5
426 426 5.1897615999999986E5
426 427 -2.5858757999999993E5
427 426 -2.6038857999999993E5
427 427 5.1897615999999986E5
427 428 -2.5858757999999993E5
428 427 -2.6038857999999993E5
428 428 5.1897615999999986E5
428 429 -2.5858757999999993E5
429 428 -2.6038857999999993E5
429 429 5.1897615999999986E5
429 430 -2.5858757999999993E5
430 429 -2.6038857999999993E5
430 430 5.1897615999999986E5
430 431 -2.5858757999999993E5
431 430 -2.6038857999999993E5
431 431 5.1897615999999986E5
431 432 -2.5858757999999993E5
432 431 -2.6038857999999993E5
432 432 5.1897615999999986E5
432 433 -2.5858757999999993E5
433 432 -2.6038857999999993E5
433 433 5.1897615999999986E5
433 434 -2.5858757999999993E5
434 433 -2.6038857999999993E5
434 434 5.1897615999999986E5
434 435 -2.5858757999999993E5
435 434 -2.6038857999999993E5
435 435 5.1897615999999986E5
435 436 -2.5858757999999993E5
436 435 -2.6038857999999993E5
436 436 5.1897615999999986E5
436 437 -2.5858757999999993E5
437 436 -2.6038857999999993E5
437 437 5.1897615999999986E5
437 438 -2.5858757999999993E5
438 437 -2.6038857999999993E5
438 438 5.1897615999999986E5
438 439 -2.5858757999999993E5
439 438 -2.6038857999999993E5
439 439 5.1897615999999986E5
439 440 -2.5858757999999993E5
440 439 -2.6038857999999993E5
440 440 5.1897615999999986E5
440 441 -2.5858757999999993E5
441 440 -2.6038857999999993E5
441 441 5.1897615999999986E5
441 442 -2.5858757999999993E5
442 441 -2.6038857999999993E5
442 442 5.1897615999999986E5
442 443 -2.5858757999999993E5
443 442 -2.6038857999999993E5
443 443 5.1897615999999986E5
443 444 -2.5858757999999993E5
444 443 -2.6038857999999993E5
444 444 5.1897615999999986E5
444 445 -2.5858757999999993E5
445 444 -2.6038857999999993E5
445 445 5.1897615999999986E5
445 446 -2.5858757999999993E5
446 445 -2.6038857999999993E5
446 446 5.1897615999999986E5
446 447 -2.5858757999999993E5
447 446 -2.6038857999999993E5
447 447 5.1897615999999986E5
447 448 -2.5858757999999993E5
448 447 -2.6038857999999993E5
448 448 5.1897615999999986E5
448 449 -2.5858757999999993E5
449 448 -2.6038857999999993E5
449 449 5.1897615999999986E5
449 450 -2.5858757999999993E5
450 449 -2.6038857999999993E5
450 450 5.1897615999999986E5
450 451 -2.5858757999999993E5
451 450 -2.6038857999999993E5
451 451 5.1897615999999986E5
451 452 -2.5858757999999993E5
452 451 -2.6038857999999993E5
452 452 5.1897615999999986E5
452 453 -2.5858757999999993E5
453 452 -2.6038857999999993E5
453 453 5.1897615999999986E5
453 454 -2.5858757999999993E5
454 453 -2.6038857999999993E5
454 454 5.1897615999999986E5
454 455 -2.5858757999999993E5
455 454 -2.6038857999999993E5
455 455 5.1897615999999986E5
455 456 -2.5858757999999993E5
456 455 -2.6038857999999993E5
456 456 5.1897615999999986E5
456 457 -2.5858757999999993E5
457 456 -2.6038857999999993E5
457 457 5.1897615999999986E5
457 458 -2.5858757999999993E5
458 457 -2.6038857999999993E5
458 458 5.1897615999999986E5
458 459 -2.5858757999999993E5
459 458 -2.6038857999999993E5
459 459 5.1897615999999986E5
459 460 -2.5858757999999993E5
460 459 -2.6038857999999993E5
460 460 5.1897615999999986E5
460 461 -2.5858757999999993E5
461 460 -2.6038857999999993E5
461 461 5.1897615999999986E5
461 462 -2.5858757999999993E5
462 461 -2.6038857999999993E5
462 462 5.1897615999999986E5
462 463 -2.5858757999999993E5
463 462 -2.6038857999999993E5
463 463 5.1897615999999986E5
463 464 -2.5858757999999993E5
464 463 -2.6038857999999993E5
464 464 5.1897615999999986E5
464 465 -2.5858757999999993E5
465 464 -2.6038857999999993E5
465 465 5.1897615999999986E5
465 466 -2.5858757999999993E5
466 465 -2.6038857999999993E5
466 466 5.1897615999999986E5
466 467 -2.5858757999999993E5
467 466 -2.6038857999999993E5
467 467 5.1897615999999986E5
467 468 -2.5858757999999993E5
468 467 -2.6038857999999993E5
468 468 5.1897615999999986E5
468 469 -2.5858757999999993E5
469 468 -2.6038857999999993E5
469 469 5.1897615999999986E5
469 470 -2.5858757999999993E5
470 469 -2.6038857999999993E5
470 470 5.1897615999999986E5
470 471 -2.5858757999999993E5
471 470 -2.6038857999999993E5
471 471 5.1897615999999986E5
471 472 -2.5858757999999993E5
472 471 -2.6038857999999993E5
472 472 5.1897615999999986E5
472 473 -2.5858757999999993E5
473 472 -2.6038857999999993E5
473 473 5.1897615999999986E5
473 474 -2.5858757999999993E5
474 473 -2.6038857999999993E5
474 474 5.1897615999999986E5
474 475 -2.5858757999999993E5
475 474 -2.6038857999999993E5
475 475 5.1897615999999986E5
475 476 -2.5858757999999993E5
476 475 -2.6038857999999993E5
476 476 5.1897615999999986E5
476 477 -2.5858757999999993E5
477 476 -2.6038857999999993E5
477 477 5.1897615999999986E5
477 478 -2.5858757999999993E5
478 477 -2.6038857999999993E5
478 478 5.1897615999999986E5
478 479 -2.5858757999999993E5
479 478 -2.6038857999999993E5
479 479 5.1897615999999986E5
479 480 -2.5858757999999993E5
480 479 -2.6038857999999993E5
480 480 5.1897615999999986E5
480 481 -2.5858757999999993E5
481 480 -2.6038857999999993E5
481 481 5.1897615999999986E5
481 482 -2.5858757999999993E5
482 481 -2.6038857999999993E5
482 482 5.1897615999999986E5
482 483 -2.5858757999999993E5
483 482 -2.6038857999999993E5
483 483 5.1897615999999986E5
483 484 -2.5858757999999993E5
484 483 -2.6038857999999993E5
484 484 5.1897615999999986E5
484 485 -2.5858757999999993E5
485 484 -2.6038857999999993E5
485 485 5.1897615999999986E5
485 486 -2.5858757999999993E5
486 485 -2.6038857999999993E5
486 486 5.1897615999999986E5
486 487 -2.5858757999999993E5
487 486 -2.6038857999999993E5
487 487 5.1897615999999986E5
487 488 -2.5858757999999993E5
488 487 -2.6038857999999993E5
488 488 5.1897615999999986E5
488 489 -2.5858757999999993E5
489 488 -2.6038857999999993E5
489 489 5.1897615999999986E5
489 490 -2.5858757999999993E5
490 489 -2.6038857999999993E5
490 490 5.1897615999999986E5
490 491 -2.5858757999999993E5
491 490 -2.6038857999999993E5
491 491 5.1897615999999986E5
491 492 -2.5858757999999993E5
492 491 -2.6038857999999993E5
492 492 5.1897615999999986E5
492 493 -2.5858757999999993E5
493 492 -2.6038857999999993E5
493 493 5.1897615999999986E5
493 494 -2.5858757999999993E5
494 493 -2.6038857999999993E5
494 494 5.1897615999999986E5
494 495 -2.5858757999999993E5
495 494 -2.6038857999999993E5
495 495 5.1897615999999986E5
495 496 -2.5858757999999993E5
496 495 -2.6038857999999993E5
496 496 5.1897615999999986E5
496 497 -2.5858757999999993E5
497 496 -2.6038857999999993E5
497 497 5.1897615999999986E5
497 498 -2.5858757999999993E5
498 497 -2.6038857999999993E5
498 498 5.1897615999999986E5
498 499 -2.5858757999999993E5
499 498 -2.6038857999999993E5
499 499 5.1897615999999986E5
499 500 -2.5858757999999993E5
500 499 -2.6038857999999993E5
500 500 5.1897615999999986E5
500 501 -2.5858757999999993E5
501 500 -2.6038857999999993E5
501 501 5.1897615999999986E5
501 502 -2.5858757999999993E5
502 501 -2.6038857999999993E5
502 502 5.1897615999999986E5
502 503 -2.5858757999999993E5
503 502 -2.6038857999999993E5
503 503 5.1897615999999986E5
503 504 -2.5858757999999993E5
504 503 -2.6038857999999993E5
504 504 5.1897615999999986E5
504 505 -2.5858757999999993E5
505 504 -2.6038857999999993E5
505 505 5.1897615999999986E5
505 506 -2.5858757999999993E5
506 505 -2.6038857999999993E5
506 506 5.1897615999999986E5
506 507 -2.5858757999999993E5
507 506 -2.6038857999999993E5
507 507 5.1897615999999986E5
507 508 -2.5858757999999993E5
508 507 -2.6038857999999993E5
508 508 5.1897615999999986E5
508 509 -2.5858757999999993E5
509 508 -2.6038857999999993E5
509 509 5.1897615999999986E5
509 510 -2.5858757999999993E5
510 509 -2.6038857999999993E5
510 510 5.1897615999999986E5
510 511 -2.5858757999999993E5
511 510 -2.6038857999999993E5
511 511 5.1897615999999986E5
511 512 -2.5858757999999993E5
512 511 -2.6038857999999993E5
512 512 5.1897615999999986E5
512 513 -2.5858757999999993E5
513 512 -2.6038857999999993E5
513 513 5.1897615999999986E5
513 514 -2.5858757999999993E5
514 513 -2.6038857999999993E5
514 514 5.1897615999999986E5
514 515 -2.5858757999999993E5
515 514 -2.6038857999999993E5
515 515 5.1897615999999986E5
515 516 -2.5858757999999993E5
516 515 -2.6038857999999993E5
516 516 5.1897615999999986E5
516 517 -2.5858757999999993E5
517 516 -2.6038857999999993E5
517 517 5.1897615999999986E5
517 518 -2.5858757999999993E5
518 517 -2.6038857999999993E5
518 518 5.1897615999999986E5
518 519 -2.5858757999999993E5
519 518 -2.6038857999999993E5
519 519 5.1897615999999986E5
519 520 -2.5858757999999993E5
520 519 -2.6038857999999993E5
520 520 5.1897615999999986E5
520 521 -2.5858757999999993E5
521 520 -2.6038857999999993E5
521 521 5.1897615999999986E5
521 522 -2.5858757999999993E5
522 521 -2.6038857999999993E5
522 522 5.1897615999999986E5
522 523 -2.5858757999999993E5
523 522 -2.6038857999999993E5
523 523 5.1897615999999986E5
523 524 -2.5858757999999993E5
524 523 -2.6038857999999993E5
524 524 5.1897615999999986E5
524 525 -2.5858757999999993E5
525 524 -2.6038857999999993E5
525 525 5.1897615999999986E5
525 526 -2.5858757999999993E5
526 525 -2.6038857999999993E5
526 526 5.1897615999999986E5
526 527 -2.5858757999999993E5
527 526 -2.6038857999999993E5
527 527 5.1897615999999986E5
527 528 -2.5858757999999993E5
528 527 -2.6038857999999993E5
528 528 5.1897615999999986E5
528 529 -2.5858757999999993E5
529 528 -2.6038857999999993E5
529 529 5.1897615999999986E5
529 530 -2.5858757999999993E5
530 529 -2.6038857999999993E5
530 530 5.1897615999999986E5
530 531 -2.5858757999999993E5
531 530 -2.6038857999999993E5
531 531 5.1897615999999986E5
531 532 -2.5858757999999993E5
532 531 -2.6038857999999993E5
532 532 5.1897615999999986E5
532 533 -2.5858757999999993E5
533 532 -2.6038857999999993E5
533 533 5.1897615999999986E5
533 534 -2.5858757999999993E5
534 533 -2.6038857999999993E5
534 534 5.1897615999999986E5
534 535 -2.5858757999999993E5
535 534 -2.6038857999999993E5
535 535 5.1897615999999986E5
535 536 -2.5858757999999993E5
536 535 -2.6038857999999993E5
536 536 5.1897615999999986E5
536 537 -2.5858757999999993E5
537 536 -2.6038857999999993E5
537 537 5.1897615999999986E5
537 538 -2.5858757999999993E5
538 537 -2.6038857999999993E5
538 538 5.1897615999999986E5
538 539 -2.5858757999999993E5
539 538 -2.6038857999999993E5
539 539 5.1897615999999986E5
539 540 -2.5858757999999993E5
540 539 -2.6038857999999993E5
540 540 5.1897615999999986E5
540 541 -2.5858757999999993E5
541 540 -2.6038857999999993E5
541 541 5.1897615999999986E5
541 542 -2.5858757999999993E5
542 541 -2.6038857999999993E5
542 542 5.1897615999999986E5
542 543 -2.5858757999999993E5
543 542 -2.6038857999999993E5
543 543 5.1897615999999986E5
543 544 -2.5858757999999993E5
544 543 -2.6038857999999993E5
544 544 5.1897615999999986E5
544 545 -2.5858757999999993E5
545 544 -2.6038857999999993E5
545 545 5.1897615999999986E5
545 546 -2.5858757999999993E5
546 545 -2.6038857999999993E5
546 546 5.1897615999999986E5
546 547 -2.5858757999999993E5
547 546 -2.6038857999999993E5
547 547 5.1897615999999986E5
547 548 -2.5858757999999993E5
548 547 -2.6038857999999993E5
548 548 5.1897615999999986E5
548 549 -2.5858757999999993E5
549 548 -2.6038857999999993E5
549 549 5.1897615999999986E5
549 550 -2.5858757999999993E5
550 549 -2.6038857999999993E5
550 550 5.1897615999999986E5
550 551 -2.5858757999999993E5
551 550 -2.6038857999999993E5
551 551 5.1897615999999986E5
551 552 -2.5858757999999993E5
552 551 -2.6038857999999993E5
552 552 5.1897615999999986E5
552 553 -2.5858757999999993E5
553 552 -2.6038857999999993E5
553 553 5.1897615999999986E5
553 554 -2.5858757999999993E5
554 553 -2.6038857999999993E5
554 554 5.1897615999999986E5
554 555 -2.5858757999999993E5
555 554 -2.6038857999999993E5
555 555 5.1897615999999986E5
555 556 -2.5858757999999993E5
556 555 -2.6038857999999993E5
556 556 5.1897615999999986E5
556 557 -2.5858757999999993E5
557 556 -2.6038857999999993E5
557 557 5.1897615999999986E5
557 558 -2.5858757999999993E5
558 557 -2.6038857999999993E5
558 558 5.1897615999999986E5
558 559 -2.5858757999999993E5
559 558 -2.6038857999999993E5
559 559 5.1897615999999986E5
559 560 -2.5858757999999993E5
560 559 -2.6038857999999993E5
560 560 5.1897615999999986E5
560 561 -2.5858757999999993E5
561 560 -2.6038857999999993E5
561 561 5.1897615999999986E5
561 562 -2.5858757999999993E5
562 561 -2.6038857999999993E5
562 562 5.1897615999999986E5
562 563 -2.5858757999999993E5
563 562 -2.6038857999999993E5
563 563 5.1897615999999986E5
563 564 -2.5858757999999993E5
564 563 -2.6038857999999993E5
564 564 5.1897615999999986E5
564 565 -2.5858757999999993E5
565 564 -2.6038857999999993E5
565 565 5.1897615999999986E5
565 566 -2.5858757999999993E5
566 565 -2.6038857999999993E5
566 566 5.1897615999999986E5
566 567 -2.5858757999999993E5
567 566 -2.6038857999999993E5
567 567 5.1897615999999986E5
567 568 -2.5858757999999993E5
568 567 -2.6038857999999993E5
568 568 5.1897615999999986E5
568 569 -2.5858757999999993E5
569 568 -2.6038857999999993E5
569 569 5.1897615999999986E5
569 570 -2.5858757999999993E5
570 569 -2.6038857999999993E5
570 570 5.1897615999999986E5
570 571 -2.5858757999999993E5
571 570 -2.6038857999999993E5
571 571 5.1897615999999986E5
571 572 -2.5858757999999993E5
572 571 -2.6038857999999993E5
572 572 5.1897615999999986E5
572 573 -2.5858757999999993E5
573 572 -2.6038857999999993E5
573 573 5.1897615999999986E5
573 574 -2.5858757999999993E5
574 573 -2.6038857999999993E5
574 574 5.1897615999999986E5
574 575 -2.5858757999999993E5
575 574 -2.6038857999999993E5
575 575 5.1897615999999986E5
575 576 -2.5858757999999993E5
576 575 -2.6038857999999993E5
576 576 5.1897615999999986E5
576 577 -2.5858757999999993E5
577 576 -2.6038857999999993E5
577 577 5.1897615999999986E5
577 578 -2.5858757999999993E5
578 577 -2.6038857999999993E5
578 578 5.1897615999999986E5
578 579 -2.5858757999999993E5
579 578 -2.6038857999999993E5
579 579 5.1897615999999986E5
579 580 -2.5858757999999993E5
580 579 -2.6038857999999993E5
580 580 5.1897615999999986E5
580 581 -2.5858757999999993E5
581 580 -2.6038857999999993E5
581 581 5.1897615999999986E5
581 582 -2.5858757999999993E5
582 581 -2.6038857999999993E5
582 582 5.1897615999999986E5
582 583 -2.5858757999999993E5
583 582 -2.6038857999999993E5
583 583 5.1897615999999986E5
583 584 -2.5858757999999993E5
584 583 -2.6038857999999993E5
584 584 5.1897615999999986E5
584 585 -2.5858757999999993E5
585 584 -2.6038857999999993E5
585 585 5.1897615999999986E5
585 586 -2.5858757999999993E5
586 585 -2.6038857999999993E5
586 586 5.1897615999999986E5
586 587 -2.5858757999999993E5
587 586 -2.6038857999999993E5
587 587 5.1897615999999986E5
587 588 -2.5858757999999993E5
588 587 -2.6038857999999993E5
588 588 5.1897615999999986E5
588 589 -2.5858757999999993E5
589 588 -2.6038857999999993E5
589 589 5.1897615999999986E5
589 590 -2.5858757999999993E5
590 589 -2.6038857999999993E5
590 590 5.1897615999999986E5
590 591 -2.5858757999999993E5
591 590 -2.6038857999999993E5
591 591 5.1897615999999986E5
591 592 -2.5858757999999993E5
592 591 -2.6038857999999993E5
592 592 5.1897615999999986E5
592 593 -2.5858757999999993E5
593 592 -2.6038857999999993E5
593 593 5.1897615999999986E5
593 594 -2.5858757999999993E5
594 593 -2.6038857999999993E5
594 594 5.1897615999999986E5
594 595 -2.5858757999999993E5
595 594 -2.6038857999999993E5
595 595 5.1897615999999986E5
595 596 -2.5858757999999993E5
596 595 -2.6038857999999993E5
596 596 5.1897615999999986E5
596 597 -2.5858757999999993E5
597 596 -2.6038857999999993E5
597 597 5.1897615999999986E5
597 598 -2.5858757999999993E5
598 597 -2.6038857999999993E5
598 598 5.1897615999999986E5
598 599 -2.5858757999999993E5
599 598 -2.6038857999999993E5
599 599 5.1897615999999986E5
599 600 -2.5858757999999993E5
600 599 -2.6038857999999993E5
600 600 5.1897615999999986E5
600 601 -2.5858757999999993E5
601 600 -2.6038857999999993E5
601 601 5.1897615999999986E5
601 602 -2.5858757999999993E5
602 601 -2.6038857999999993E5
602 602 5.1897615999999986E5
602 603 -2.5858757999999993E5
603 602 -2.6038857999999993E5
603 603 5.1897615999999986E5
603 604 -2.5858757999999993E5
604 603 -2.6038857999999993E5
604 604 5.1897615999999986E5
604 605 -2.5858757999999993E5
605 604 -2.6038857999999993E5
605 605 5.1897615999999986E5
605 606 -2.5858757999999993E5
606 605 -2.6038857999999993E5
606 606 5.1897615999999986E5
606 607 -2.5858757999999993E5
607 606 -2.6038857999999993E5
607 607 5.1897615999999986E5
607 608 -2.5858757999999993E5
608 607 -2.6038857999999993E5
608 608 5.1897615999999986E5
608 609 -2.5858757999999993E5
609 608 -2.6038857999999993E5
609 609 5.1897615999999986E5
609 610 -2.5858757999999993E5
610 609 -2.6038857999999993E5
610 610 5.1897615999999986E5
610 611 -2.5858757999999993E5
611 610 -2.6038857999999993E5
611 611 5.1897615999999986E5
611 612 -2.5858757999999993E5
612 611 -2.6038857999999993E5
612 612 5.1897615999999986E5
612 613 -2.5858757999999993E5
613 612 -2.6038857999999993E5
613 613 5.1897615999999986E5
613 614 -2.5858757999999993E5
614 613 -2.6038857999999993E5
614 614 5.1897615999999986E5
614 615 -2.5858757999999993E5
615 614 -2.6038857999999993E5
615 615 5.1897615999999986E5
615 616 -2.5858757999999993E5
616 615 -2.6038857999999993E5
616 616 5.1897615999999986E5
616 617 -2.5858757999999993E5
617 616 -2.6038857999999993E5
617 617 5.1897615999999986E5
617 618 -2.5858757999999993E5
618 617 -2.6038857999999993E5
618 618 5.1897615999999986E5
618 619 -2.5858757999999993E5
619 618 -2.6038857999999993E5
619 619 5.1897615999999986E5
619 620 -2.5858757999999993E5
620 619 -2.6038857999999993E5
620 620 5.1897615999999986E5
620 621 -2.5858757999999993E5
621 620 -2.6038857999999993E5
621 621 5.1897615999999986E5
621 622 -2.5858757999999993E5
622 621 -2.6038857999999993E5
622 622 5.1897615999999986E5
622 623 -2.5858757999999993E5
623 622 -2.6038857999999993E5
623 623 5.1897615999999986E5
623 624 -2.5858757999999993E5
624 623 -2.6038857999999993E5
624 624 5.1897615999999986E5
624 625 -2.5858757999999993E5
625 624 -2.6038857999999993E5
625 625 5.1897615999999986E5
625 626 -2.5858757999999993E5
626 625 -2.6038857999999993E5
626 626 5.1897615999999986E5
626 627 -2.5858757999999993E5
627 626 -2.6038857999999993E5
627 627 5.1897615999999986E5
627 628 -2.5858757999999993E5
628 627 -2.6038857999999993E5
628 628 5.1897615999999986E5
628 629 -2.5858757999999993E5
629 628 -2.6038857999999993E5
629 629 5.1897615999999986E5
629 630 -2.5858757999999993E5
630 629 -2.6038857999999993E5
630 630 5.1897615999999986E5
630 631 -2.5858757999999993E5
631 630 -2.6038857999999993E5
631 631 5.1897615999999986E5
631 632 -2.5858757999999993E5
632 631 -2.6038857999999993E5
632 632 5.1897615999999986E5
632 633 -2.5858757999999993E5
633 632 -2.6038857999999993E5
633 633 5.1897615999999986E5
633 634 -2.5858757999999993E5
634 633 -2.6038857999999993E5
634 634 5.1897615999999986E5
634 635 -2.5858757999999993E5
635 634 -2.6038857999999993E5
635 635 5.1897615999999986E5
635 636 -2.5858757999999993E5
636 635 -2.6038857999999993E5
636 636 5.1897615999999986E5
636 637 -2.5858757999999993E5
637 636 -2.6038857999999993E5
637 637 5.1897615999999986E5
637 638 -2.5858757999999993E5
638 637 -2.6038857999999993E5
638 638 5.1897615999999986E5
638 639 -2.5858757999999993E5
639 638 -2.6038857999999993E5
639 639 5.1897615999999986E5
639 640 -2.5858757999999993E5
640 639 -2.6038857999999993E5
640 640 5.1897615999999986E5
640 641 -2.5858757999999993E5
641 640 -2.6038857999999993E5
641 641 5.1897615999999986E5
641 642 -2.5858757999999993E5
642 641 -2.6038857999999993E5
642 642 5.1897615999999986E5
642 643 -2.5858757999999993E5
643 642 -2.6038857999999993E5
643 643 5.1897615999999986E5
643 644 -2.5858757999999993E5
644 643 -2.6038857999999993E5
644 644 5.1897615999999986E5
644 645 -2.5858757999999993E5
645 644 -2.6038857999999993E5
645 645 5.1897615999999986E5
645 646 -2.5858757999999993E5
646 645 -2.6038857999999993E5
646 646 5.1897615999999986E5
646 647 -2.5858757999999993E5
647 646 -2.6038857999999993E5
647 647 5.1897615999999986E5
647 648 -2.5858757999999993E5
648 647 -2.6038857999999993E5
648 648 5.1897615999999986E5
648 649 -2.5858757999999993E5
649 648 -2.6038857999999993E5
649 649 5.1897615999999986E5
649 650 -2.5858757999999993E5
650 649 -2.6038857999999993E5
650 650 5.1897615999999986E5
650 651 -2.5858757999999993E5
651 650 -2.6038857999999993E5
651 651 5.1897615999999986E5
651 652 -2.5858757999999993E5
652 651 -2.6038857999999993E5
652 652 5.1897615999999986E5
652 653 -2.5858757999999993E5
653 652 -2.6038857999999993E5
653 653 5.1897615999999986E5
653 654 -2.5858757999999993E5
654 653 -2.6038857999999993E5
654 654 5.1897615999999986E5
654 655 -2.5858757999999993E5
655 654 -2.6038857999999993E5
655 655 5.1897615999999986E5
655 656 -2.5858757999999993E5
656 655 -2.6038857999999993E5
656 656 5.1897615999999986E5
656 657 -2.5858757999999993E5
657 656 -2.6038857999999993E5
657 657 5.1897615999999986E5
657 658 -2.5858757999999993E5
658 657 -2.6038857999999993E5
658 658 5.1897615999999986E5
658 659 -2.5858757999999993E5
659 658 -2.6038857999999993E5
659 659 5.1897615999999986E5
659 660 -2.5858757999999993E5
660 659 -2.6038857999999993E5
660 660 5.1897615999999986E5
660 661 -2.5858757999999993E5
661 660 -2.6038857999999993E5
661 661 5.1897615999999986E5
661 662 -2.5858757999999993E5
662 661 -2.6038857999999993E5
662 662 5.1897615999999986E5
662 663 -2.5858757999999993E5
663 662 -2.6038857999999993E5
663 663 5.1897615999999986E5
663 664 -2.5858757999999993E5
664 663 -2.6038857999999993E5
664 664 5.1897615999999986E5
664 665 -2.5858757999999993E5
665 664 -2.6038857999999993E5
665 665 5.1897615999999986E5
665 666 -2.5858757999999993E5
666 665 -2.6038857999999993E5
666 666 5.1897615999999986E5
666 667 -2.5858757999999993E5
667 666 -2.6038857999999993E5
667 667 5.1897615999999986E5
667 668 -2.5858757999999993E5
668 667 -2.6038857999999993E5
668 668 5.1897615999999986E5
668 669 -2.5858757999999993E5
669 668 -2.6038857999999993E5
669 669 5.1897615999999986E5
669 670 -2.5858757999999993E5
670 669 -2.6038857999999993E5
670 670 5.1897615999999986E5
670 671 -2.5858757999999993E5
671 670 -2.6038857999999993E5
671 671 5.1897615999999986E5
671 672 -2.5858757999999993E5
672 671 -2.6038857999999993E5
672 672 5.1897615999999986E5
672 673 -2.5858757999999993E5
673 672 -2.6038857999999993E5
673 673 5.1897615999999986E5
673 674 -2.5858757999999993E5
674 673 -2.6038857999999993E5
674 674 5.1897615999999986E5
674 675 -2.5858757999999993E5
675 674 -2.6038857999999993E5
675 675 5.1897615999999986E5
675 676 -2.5858757999999993E5
676 675 -2.6038857999999993E5
676 676 5.1897615999999986E5
676 677 -2.5858757999999993E5
677 676 -2.6038857999999993E5
677 677 5.1897615999999986E5
677 678 -2.5858757999999993E5
678 677 -2.6038857999999993E5
678 678 5.1897615999999986E5
678 679 -2.5858757999999993E5
679 678 -2.6038857999999993E5
679 679 5.1897615999999986E5
679 680 -2.5858757999999993E5
680 679 -2.6038857999999993E5
680 680 5.1897615999999986E5
680 681 -2.5858757999999993E5
681 680 -2.6038857999999993E5
681 681 5.1897615999999986E5
681 682 -2.5858757999999993E5
682 681 -2.6038857999999993E5
682 682 5.1897615999999986E5
682 683 -2.5858757999999993E5
683 682 -2.6038857999999993E5
683 683 5.1897615999999986E5
683 684 -2.5858757999999993E5
684 683 -2.6038857999999993E5
684 684 5.1897615999999986E5
684 685 -2.5858757999999993E5
685 684 -2.6038857999999993E5
685 685 5.1897615999999986E5
685 686 -2.5858757999999993E5
686 685 -2.6038857999999993E5
686 686 5.1897615999999986E5
686 687 -2.5858757999999993E5
687 686 -2.6038857999999993E5
687 687 5.1897615999999986E5
687 688 -2.5858757999999993E5
688 687 -2.6038857999999993E5
688 688 5.1897615999999986E5
688 689 -2.5858757999999993E5
689 688 -2.6038857999999993E5
689 689 5.1897615999999986E5
689 690 -2.5858757999999993E5
690 689 -2.6038857999999993E5
690 690 5.1897615999999986E5
690 691 -2.5858757999999993E5
691 690 -2.6038857999999993E5
691 691 5.1897615999999986E5
691 692 -2.5858757999999993E5
692 691 -2.6038857999999993E5
692 692 5.1897615999999986E5
692 693 -2.5858757999999993E5
693 692 -2.6038857999999993E5
693 693 5.1897615999999986E5
693 694 -2.5858757999999993E5
694 693 -2.6038857999999993E5
694 694 5.1897615999999986E5
694 695 -2.5858757999999993E5
695 694 -2.6038857999999993E5
695 695 5.1897615999999986E5
695 696 -2.5858757999999993E5
696 695 -2.6038857999999993E5
696 696 5.1897615999999986E5
696 697 -2.5858757999999993E5
697 696 -2.6038857999999993E5
697 697 5.1897615999999986E5
697 698 -2.5858757999999993E5
698 697 -2.6038857999999993E5
698 698 5.1897615999999986E5
698 699 -2.5858757999999993E5
699 698 -2.6038857999999993E5
699 699 5.1897615999999986E5
699 700 -2.5858757999999993E5
700 699 -2.6038857999999993E5
700 700 5.1897615999999986E5
700 701 -2.5858757999999993E5
701 700 -2.6038857999999993E5
701 701 5.1897615999999986E5
701 702 -2.5858757999999993E5
702 701 -2.6038857999999993E5
702 702 5.1897615999999986E5
702 703 -2.5858757999999993E5
703 702 -2.6038857999999993E5
703 703 5.1897615999999986E5
703 704 -2.5858757999999993E5
704 703 -2.6038857999999993E5
704 704 5.1897615999999986E5
704 705 -2.5858757999999993E5
705 704 -2.6038857999999993E5
705 705 5.1897615999999986E5
705 706 -2.5858757999999993E5
706 705 -2.6038857999999993E5
706 706 5.1897615999999986E5
706 707 -2.5858757999999993E5
707 706 -2.6038857999999993E5
707 707 5.1897615999999986E5
707 708 -2.5858757999999993E5
708 707 -2.6038857999999993E5
708 708 5.1897615999999986E5
708 709 -2.5858757999999993E5
709 708 -2.6038857999999993E5
709 709 5.1897615999999986E5
709 710 -2.5858757999999993E5
710 709 -2.6038857999999993E5
710 710 5.1897615999999986E5
710 711 -2.5858757999999993E5
711 710 -2.6038857999999993E5
711 711 5.1897615999999986E5
711 712 -2.5858757999999993E5
712 711 -2.6038857999999993E5
712 712 5.1897615999999986E5
712 713 -2.5858757999999993E5
713 712 -2.6038857999999993E5
713 713 5.1897615999999986E5
713 714 -2.5858757999999993E5
714 713 -2.6038857999999993E5
714 714 5.1897615999999986E5
714 715 -2.5858757999999993E5
715 714 -2.6038857999999993E5
715 715 5.1897615999999986E5
715 716 -2.5858757999999993E5
716 715 -2.6038857999999993E5
716 716 5.1897615999999986E5
716 717 -2.5858757999999993E5
717 716 -2.6038857999999993E5
717 717 5.1897615999999986E5
717 718 -2.5858757999999993E5
718 717 -2.6038857999999993E5
718 718 5.1897615999999986E5
718 719 -2.5858757999999993E5
719 718 -2.6038857999999993E5
719 719 5.1897615999999986E5
719 720 -2.5858757999999993E5
720 719 -2.6038857999999993E5
720 720 5.1897615999999986E5
720 721 -2.5858757999999993E5
721 720 -2.6038857999999993E5
721 721 5.1897615999999986E5
721 722 -2.5858757999999993E5
722 721 -2.6038857999999993E5
722 722 5.1897615999999986E5
722 723 -2.5858757999999993E5
723 722 -2.6038857999999993E5
723 723 5.1897615999999986E5
723 724 -2.5858757999999993E5
724 723 -2.6038857999999993E5
724 724 5.1897615999999986E5
724 725 -2.5858757999999993E5
725 724 -2.6038857999999993E5
725 725 5.1897615999999986E5
725 726 -2.5858757999999993E5
726 725 -2.6038857999999993E5
726 726 5.1897615999999986E5
726 727 -2.5858757999999993E5
727 726 -2.6038857999999993E5
727 727 5.1897615999999986E5
727 728 -2.5858757999999993E5
728 727 -2.6038857999999993E5
728 728 5.1897615999999986E5
728 729 -2.5858757999999993E5
729 728 -2.6038857999999993E5
729 729 5.1897615999999986E5
729 730 -2.5858757999999993E5
730 729 -2.6038857999999993E5
730 730 5.1897615999999986E5
730 731 -2.5858757999999993E5
731 730 -2.6038857999999993E5
731 731 5.1897615999999986E5
731 732 -2.5858757999999993E5
732 731 -2.6038857999999993E5
732 732 5.1897615999999986E5
732 733 -2.5858757999999993E5
733 732 -2.6038857999999993E5
733 733 5.1897615999999986E5
733 734 -2.5858757999999993E5
734 733 -2.6038857999999993E5
734 734 5.1897615999999986E5
734 735 -2.5858757999999993E5
735 734 -2.6038857999999993E5
735 735 5.1897615999999986E5
735 736 -2.5858757999999993E5
736 735 -2.6038857999999993E5
736 736 5.1897615999999986E5
736 737 -2.5858757999999993E5
737 736 -2.6038857999999993E5
737 737 5.1897615999999986E5
737 738 -2.5858757999999993E5
738 737 -2.6038857999999993E5
738 738 5.1897615999999986E5
738 739 -2.5858757999999993E5
739 738 -2.6038857999999993E5
739 739 5.1897615999999986E5
739 740 -2.5858757999999993E5
740 739 -2.6038857999999993E5
740 740 5.1897615999999986E5
740 741 -2.5858757999999993E5
741 740 -2.6038857999999993E5
741 741 5.1897615999999986E5
741 742 -2.5858757999999993E5
742 741 -2.6038857999999993E5
742 742 5.1897615999999986E5
742 743 -2.5858757999999993E5
743 742 -2.6038857999999993E5
743 743 5.1897615999999986E5
743 744 -2.5858757999999993E5
744 743 -2.6038857999999993E5
744 744 5.1897615999999986E5
744 745 -2.5858757999999993E5
745 744 -2.6038857999999993E5
745 745 5.1897615999999986E5
745 746 -2.5858757999999993E5
746 745 -2.6038857999999993E5
746 746 5.1897615999999986E5
746 747 -2.5858757999999993E5
747 746 -2.6038857999999993E5
747 747 5.1897615999999986E5
747 748 -2.5858757999999993E5
748 747 -2.6038857999999993E5
748 748 5.1897615999999986E5
748 749 -2.5858757999999993E5
749 748 -2.6038857999999993E5
749 749 5.1897615999999986E5
749 750 -2.5858757999999993E5
750 749 -2.6038857999999993E5
750 750 5.1897615999999986E5
750 751 -2.5858757999999993E5
751 750 -2.6038857999999993E5
751 751 5.1897615999999986E5
751 752 -2.5858757999999993E5
752 751 -2.6038857999999993E5
752 752 5.1897615999999986E5
752 753 -2.5858757999999993E5
753 752 -2.6038857999999993E5
753 753 5.1897615999999986E5
753 754 -2.5858757999999993E5
754 753 -2.6038857999999993E5
754 754 5.1897615999999986E5
754 755 -2.5858757999999993E5
755 754 -2.6038857999999993E5
755 755 5.1897615999999986E5
755 756 -2.5858757999999993E5
756 755 -2.6038857999999993E5
756 756 5.1897615999999986E5
756 757 -2.5858757999999993E5
757 756 -2.6038857999999993E5
757 757 5.1897615999999986E5
757 758 -2.5858757999999993E5
758 757 -2.6038857999999993E5
758 758 5.1897615999999986E5
758 759 -2.5858757999999993E5
759 758 -2.6038857999999993E5
759 759 5.1897615999999986E5
759 760 -2.5858757999999993E5
760 759 -2.6038857999999993E5
760 760 5.1897615999999986E5
760 761 -2.5858757999999993E5
761 760 -2.6038857999999993E5
761 761 5.1897615999999986E5
761 762 -2.5858757999999993E5
762 761 -2.6038857999999993E5
762 762 5.1897615999999986E5
762 763 -2.5858757999999993E5
763 762 -2.6038857999999993E5
763 763 5.1897615999999986E5
763 764 -2.5858757999999993E5
764 763 -2.6038857999999993E5
764 764 5.1897615999999986E5
764 765 -2.5858757999999993E5
765 764 -2.6038857999999993E5
765 765 5.1897615999999986E5
765 766 -2.5858757999999993E5
766 765 -2.6038857999999993E5
766 766 5.1897615999999986E5
766 767 -2.5858757999999993E5
767 766 -2.6038857999999993E5
767 767 5.1897615999999986E5
767 768 -2.5858757999999993E5
768 767 -2.6038857999999993E5
768 768 5.1897615999999986E5
768 769 -2.5858757999999993E5
769 768 -2.6038857999999993E5
769 769 5.1897615999999986E5
769 770 -2.5858757999999993E5
770 769 -2.6038857999999993E5
770 770 5.1897615999999986E5
770 771 -2.5858757999999993E5
771 770 -2.6038857999999993E5
771 771 5.1897615999999986E5
771 772 -2.5858757999999993E5
772 771 -2.6038857999999993E5
772 772 5.1897615999999986E5
772 773 -2.5858757999999993E5
773 772 -2.6038857999999993E5
773 773 5.1897615999999986E5
773 774 -2.5858757999999993E5
774 773 -2.6038857999999993E5
774 774 5.1897615999999986E5
774 775 -2.5858757999999993E5
775 774 -2.6038857999999993E5
775 775 5.1897615999999986E5
775 776 -2.5858757999999993E5
776 775 -2.6038857999999993E5
776 776 5.1897615999999986E5
776 777 -2.5858757999999993E5
777 776 -2.6038857999999993E5
777 777 5.1897615999999986E5
777 778 -2.5858757999999993E5
778 777 -2.6038857999999993E5
778 778 5.1897615999999986E5
778 779 -2.5858757999999993E5
779 778 -2.6038857999999993E5
779 779 5.1897615999999986E5
779 780 -2.5858757999999993E5
780 779 -2.6038857999999993E5
780 780 5.1897615999999986E5
780 781 -2.5858757999999993E5
781 780 -2.6038857999999993E5
781 781 5.1897615999999986E5
781 782 -2.5858757999999993E5
782 781 -2.6038857999999993E5
782 782 5.1897615999999986E5
782 783 -2.5858757999999993E5
783 782 -2.6038857999999993E5
783 783 5.1897615999999986E5
783 784 -2.5858757999999993E5
784 783 -2.6038857999999993E5
784 784 5.1897615999999986E5
784 785 -2.5858757999999993E5
785 784 -2.6038857999999993E5
785 785 5.1897615999999986E5
785 786 -2.5858757999999993E5
786 785 -2.6038857999999993E5
786 786 5.1897615999999986E5
786 787 -2.5858757999999993E5
787 786 -2.6038857999999993E5
787 787 5.1897615999999986E5
787 788 -2.5858757999999993E5
788 787 -2.6038857999999993E5
788 788 5.1897615999999986E5
788 789 -2.5858757999999993E5
789 788 -2.6038857999999993E5
789 789 5.1897615999999986E5
789 790 -2.5858757999999993E5
790 789 -2.6038857999999993E5
790 790 5.1897615999999986E5
790 791 -2.5858757999999993E5
791 790 -2.6038857999999993E5
791 791 5.1897615999999986E5
791 792 -2.5858757999999993E5
792 791 -2.6038857999999993E5
792 792 5.1897615999999986E5
792 793 -2.5858757999999993E5
793 792 -2.6038857999999993E5
793 793 5.1897615999999986E5
793 794 -2.5858757999999993E5
794 793 -2.6038857999999993E5
794 794 5.1897615999999986E5
794 795 -2.5858757999999993E5
795 794 -2.6038857999999993E5
795 795 5.1897615999999986E5
795 796 -2.5858757999999993E5
796 795 -2.6038857999999993E5
796 796 5.1897615999999986E5
796 797 -2.5858757999999993E5
797 796 -2.6038857999999993E5
797 797 5.1897615999999986E5
797 798 -2.5858757999999993E5
798 797 -2.6038857999999993E5
798 798 5.1897615999999986E5
798 799 -2.5858757999999993E5
799 798 -2.6038857999999993E5
799 799 5.1897615999999986E5
799 800 -2.5858757999999993E5
800 799 -2.6038857999999993E5
800 800 5.1897615999999986E5
800 801 -2.5858757999999993E5
801 800 -2.6038857999999993E5
801 801 5.1897615999999986E5
801 802 -2.5858757999999993E5
802 801 -2.6038857999999993E5
802 802 5.1897615999999986E5
802 803 -2.5858757999999993E5
803 802 -2.6038857999999993E5
803 803 5.1897615999999986E5
803 804 -2.5858757999999993E5
804 803 -2.6038857999999993E5
804 804 5.1897615999999986E5
804 805 -2.5858757999999993E5
805 804 -2.6038857999999993E5
805 805 5.1897615999999986E5
805 806 -2.5858757999999993E5
806 805 -2.6038857999999993E5
806 806 5.1897615999999986E5
806 807 -2.5858757999999993E5
807 806 -2.6038857999999993E5
807 807 5.1897615999999986E5
807 808 -2.5858757999999993E5
808 807 -2.6038857999999993E5
808 808 5.1897615999999986E5
808 809 -2.5858757999999993E5
809 808 -2.6038857999999993E5
809 809 5.1897615999999986E5
809 810 -2.5858757999999993E5
810 809 -2.6038857999999993E5
810 810 5.1897615999999986E5
810 811 -2.5858757999999993E5
811 810 -2.6038857999999993E5
811 811 5.1897615999999986E5
811 812 -2.5858757999999993E5
812 811 -2.6038857999999993E5
812 812 5.1897615999999986E5
812 813 -2.5858757999999993E5
813 812 -2.6038857999999993E5
813 813 5.1897615999999986E5
813 814 -2.5858757999999993E5
814 813 -2.6038857999999993E5
814 814 5.1897615999999986E5
814 815 -2.5858757999999993E5
815 814 -2.6038857999999993E5
815 815 5.1897615999999986E5
815 816 -2.5858757999999993E5
816 815 -2.6038857999999993E5
816 816 5.1897615999999986E5
816 817 -2.5858757999999993E5
817 816 -2.6038857999999993E5
817 817 5.1897615999999986E5
817 818 -2.5858757999999993E5
818 817 -2.6038857999999993E5
818 818 5.1897615999999986E5
818 819 -2.5858757999999993E5
819 818 -2.6038857999999993E5
819 819 5.1897615999999986E5
819 820 -2.5858757999999993E5
820 819 -2.6038857999999993E5
820 820 5.1897615999999986E5
820 821 -2.5858757999999993E5
821 820 -2.6038857999999993E5
821 821 5.1897615999999986E5
821 822 -2.5858757999999993E5
822 821 -2.6038857999999993E5
822 822 5.1897615999999986E5
822 823 -2.5858757999999993E5
823 822 -2.6038857999999993E5
823 823 5.1897615999999986E5
823 824 -2.5858757999999993E5
824 823 -2.6038857999999993E5
824 824 5.1897615999999986E5
824 825 -2.5858757999999993E5
825 824 -2.6038857999999993E5
825 825 5.1897615999999986E5
825 826 -2.5858757999999993E5
826 825 -2.6038857999999993E5
826 826 5.1897615999999986E5
826 827 -2.5858757999999993E5
827 826 -2.6038857999999993E5
827 827 5.1897615999999986E5
827 828 -2.5858757999999993E5
828 827 -2.6038857999999993E5
828 828 5.1897615999999986E5
828 829 -2.5858757999999993E5
829 828 -2.6038857999999993E5
829 829 5.1897615999999986E5
829 830 -2.5858757999999993E5
830 829 -2.6038857999999993E5
830 830 5.1897615999999986E5
830 831 -2.5858757999999993E5
831 830 -2.6038857999999993E5
831 831 5.1897615999999986E5
831 832 -2.5858757999999993E5
832 831 -2.6038857999999993E5
832 832 5.1897615999999986E5
832 833 -2.5858757999999993E5
833 832 -2.6038857999999993E5
833 833 5.1897615999999986E5
833 834 -2.5858757999999993E5
834 833 -2.6038857999999993E5
834 834 5.1897615999999986E5
834 835 -2.5858757999999993E5
835 834 -2.6038857999999993E5
835 835 5.1897615999999986E5
835 836 -2.5858757999999993E5
836 835 -2.6038857999999993E5
836 836 5.1897615999999986E5
836 837 -2.5858757999999993E5
837 836 -2.6038857999999993E5
837 837 5.1897615999999986E5
837 838 -2.5858757999999993E5
838 837 -2.6038857999999993E5
838 838 5.1897615999999986E5
838 839 -2.5858757999999993E5
839 838 -2.6038857999999993E5
839 839 5.1897615999999986E5
839 840 -2.5858757999999993E5
840 839 -2.6038857999999993E5
840 840 5.1897615999999986E5
840 841 -2.5858757999999993E5
841 840 -2.6038857999999993E5
841 841 5.1897615999999986E5
841 842 -2.5858757999999993E5
842 841 -2.6038857999999993E5
842 842 5.1897615999999986E5
842 843 -2.5858757999999993E5
843 842 -2.6038857999999993E5
843 843 5.1897615999999986E5
843 844 -2.5858757999999993E5
844 843 -2.6038857999999993E5
844 844 5.1897615999999986E5
844 845 -2.5858757999999993E5
845 844 -2.6038857999999993E5
845 845 5.1897615999999986E5
845 846 -2.5858757999999993E5
846 845 -2.6038857999999993E5
846 846 5.1897615999999986E5
846 847 -2.5858757999999993E5
847 846 -2.6038857999999993E5
847 847 5.1897615999999986E5
847 848 -2.5858757999999993E5
848 847 -2.6038857999999993E5
848 848 5.1897615999999986E5
848 849 -2.5858757999999993E5
849 848 -2.6038857999999993E5
849 849 5.1897615999999986E5
849 850 -2.5858757999999993E5
850 849 -2.6038857999999993E5
850 850 5.1897615999999986E5
850 851 -2.5858757999999993E5
851 850 -2.6038857999999993E5
851 851 5.1897615999999986E5
851 852 -2.5858757999999993E5
852 851 -2.6038857999999993E5
852 852 5.1897615999999986E5
852 853 -2.5858757999999993E5
853 852 -2.6038857999999993E5
853 853 5.1897615999999986E5
853 854 -2.5858757999999993E5
854 853 -2.6038857999999993E5
854 854 5.1897615999999986E5
854 855 -2.5858757999999993E5
855 854 -2.6038857999999993E5
855 855 5.1897615999999986E5
855 856 -2.5858757999999993E5
856 855 -2.6038857999999993E5
856 856 5.1897615999999986E5
856 857 -2.5858757999999993E5
857 856 -2.6038857999999993E5
857 857 5.1897615999999986E5
857 858 -2.5858757999999993E5
858 857 -2.6038857999999993E5
858 858 5.1897615999999986E5
858 859 -2.5858757999999993E5
859 858 -2.6038857999999993E5
859 859 5.1897615999999986E5
859 860 -2.5858757999999993E5
860 859 -2.6038857999999993E5
860 860 5.1897615999999986E5
860 861 -2.5858757999999993E5
861 860 -2.6038857999999993E5
861 861 5.1897615999999986E5
861 862 -2.5858757999999993E5
862 861 -2.6038857999999993E5
862 862 5.1897615999999986E5
862 863 -2.5858757999999993E5
863 862 -2.6038857999999993E5
863 863 5.1897615999999986E5
863 864 -2.5858757999999993E5
864 863 -2.6038857999999993E5
864 864 5.1897615999999986E5
864 865 -2.5858757999999993E5
865 864 -2.6038857999999993E5
865 865 5.1897615999999986E5
865 866 -2.5858757999999993E5
866 865 -2.6038857999999993E5
866 866 5.1897615999999986E5
866 867 -2.5858757999999993E5
867 866 -2.6038857999999993E5
867 867 5.1897615999999986E5
867 868 -2.5858757999999993E5
868 867 -2.6038857999999993E5
868 868 5.1897615999999986E5
868 869 -2.5858757999999993E5
869 868 -2.6038857999999993E5
869 869 5.1897615999999986E5
869 870 -2.5858757999999993E5
870 869 -2.6038857999999993E5
870 870 5.1897615999999986E5
870 871 -2.5858757999999993E5
871 870 -2.6038857999999993E5
871 871 5.1897615999999986E5
871 872 -2.5858757999999993E5
872 871 -2.6038857999999993E5
872 872 5.1897615999999986E5
872 873 -2.5858757999999993E5
873 872 -2.6038857999999993E5
873 873 5.1897615999999986E5
873 874 -2.5858757999999993E5
874 873 -2.6038857999999993E5
874 874 5.1897615999999986E5
874 875 -2.5858757999999993E5
875 874 -2.6038857999999993E5
875 875 5.1897615999999986E5
875 876 -2.5858757999999993E5
876 875 -2.6038857999999993E5
876 876 5.1897615999999986E5
876 877 -2.5858757999999993E5
877 876 -2.6038857999999993E5
877 877 5.1897615999999986E5
877 878 -2.5858757999999993E5
878 877 -2.6038857999999993E5
878 878 5.1897615999999986E5
878 879 -2.5858757999999993E5
879 878 -2.6038857999999993E5
879 879 5.1897615999999986E5
879 880 -2.5858757999999993E5
880 879 -2.6038857999999993E5
880 880 5.1897615999999986E5
880 881 -2.5858757999999993E5
881 880 -2.6038857999999993E5
881 881 5.1897615999999986E5
881 882 -2.5858757999999993E5
882 881 -2.6038857999999993E5
882 882 5.1897615999999986E5
882 883 -2.5858757999999993E5
883 882 -2.6038857999999993E5
883 883 5.1897615999999986E5
883 884 -2.5858757999999993E5
884 883 -2.6038857999999993E5
884 884 5.1897615999999986E5
884 885 -2.5858757999999993E5
885 884 -2.6038857999999993E5
885 885 5.1897615999999986E5
885 886 -2.5858757999999993E5
886 885 -2.6038857999999993E5
886 886 5.1897615999999986E5
886 887 -2.5858757999999993E5
887 886 -2.6038857999999993E5
887 887 5.1897615999999986E5
887 888 -2.5858757999999993E5
888 887 -2.6038857999999993E5
888 888 5.1897615999999986E5
888 889 -2.5858757999999993E5
889 888 -2.6038857999999993E5
889 889 5.1897615999999986E5
889 890 -2.5858757999999993E5
890 889 -2.6038857999999993E5
890 890 5.1897615999999986E5
890 891 -2.5858757999999993E5
891 890 -2.6038857999999993E5
891 891 5.1897615999999986E5
891 892 -2.5858757999999993E5
892 891 -2.6038857999999993E5
892 892 5.1897615999999986E5
892 893 -2.5858757999999993E5
893 892 -2.6038857999999993E5
893 893 5.1897615999999986E5
893 894 -2.5858757999999993E5
894 893 -2.6038857999999993E5
894 894 5.1897615999999986E5
894 895 -2.5858757999999993E5
895 894 -2.6038857999999993E5
895 895 5.1897615999999986E5
895 896 -2.5858757999999993E5
896 895 -2.6038857999999993E5
896 896 5.1897615999999986E5
896 897 -2.5858757999999993E5
897 896 -2.6038857999999993E5
897 897 5.1897615999999986E5
897 898 -2.5858757999999993E5
898 897 -2.6038857999999993E5
898 898 5.1897615999999986E5
898 899 -2.5858757999999993E5
899 898 -2.6038857999999993E5
899 899 5.1897615999999986E5
899 900 -2.5858757999999993E5
900 899 -2.6038857999999993E5
900 900 5.1897615999999986E5
900 901 -2.5858757999999993E5
901 900 -2.6038857999999993E5
901 901 5.1897615999999986E5
901 902 -2.5858757999999993E5
902 901 -2.6038857999999993E5
902 902 5.1897615999999986E5
902 903 -2.5858757999999993E5
903 902 -2.6038857999999993E5
903 903 5.1897615999999986E5
903 904 -2.5858757999999993E5
904 903 -2.6038857999999993E5
904 904 5.1897615999999986E5
904 905 -2.5858757999999993E5
905 904 -2.6038857999999993E5
905 905 5.1897615999999986E5
905 906 -2.5858757999999993E5
906 905 -2.6038857999999993E5
906 906 5.1897615999999986E5
906 907 -2.5858757999999993E5
907 906 -2.6038857999999993E5
907 907 5.1897615999999986E5
907 908 -2.5858757999999993E5
908 907 -2.6038857999999993E5
908 908 5.1897615999999986E5
908 909 -2.5858757999999993E5
909 908 -2.6038857999999993E5
909 909 5.1897615999999986E5
909 910 -2.5858757999999993E5
910 909 -2.6038857999999993E5
910 910 5.1897615999999986E5
910 911 -2.5858757999999993E5
911 910 -2.6038857999999993E5
911 911 5.1897615999999986E5
911 912 -2.5858757999999993E5
912 911 -2.6038857999999993E5
912 912 5.1897615999999986E5
912 913 -2.5858757999999993E5
913 912 -2.6038857999999993E5
913 913 5.1897615999999986E5
913 914 -2.5858757999999993E5
914 913 -2.6038857999999993E5
914 914 5.1897615999999986E5
914 915 -2.5858757999999993E5
915 914 -2.6038857999999993E5
915 915 5.1897615999999986E5
915 916 -2.5858757999999993E5
916 915 -2.6038857999999993E5
916 916 5.1897615999999986E5
916 917 -2.5858757999999993E5
917 916 -2.6038857999999993E5
917 917 5.1897615999999986E5
917 918 -2.5858757999999993E5
918 917 -2.6038857999999993E5
918 918 5.1897615999999986E5
918 919 -2.5858757999999993E5
919 918 -2.6038857999999993E5
919 919 5.1897615999999986E5
919 920 -2.5858757999999993E5
920 919 -2.6038857999999993E5
920 920 5.1897615999999986E5
920 921 -2.5858757999999993E5
921 920 -2.6038857999999993E5
921 921 5.1897615999999986E5
921 922 -2.5858757999999993E5
922 921 -2.6038857999999993E5
922 922 5.1897615999999986E5
922 923 -2.5858757999999993E5
923 922 -2.6038857999999993E5
923 923 5.1897615999999986E5
923 924 -2.5858757999999993E5
924 923 -2.6038857999999993E5
924 924 5.1897615999999986E5
924 925 -2.5858757999999993E5
925 924 -2.6038857999999993E5
925 925 5.1897615999999986E5
925 926 -2.5858757999999993E5
926 925 -2.6038857999999993E5
926 926 5.1897615999999986E5
926 927 -2.5858757999999993E5
927 926 -2.6038857999999993E5
927 927 5.1897615999999986E5
927 928 -2.5858757999999993E5
928 927 -2.6038857999999993E5
928 928 5.1897615999999986E5
928 929 -2.5858757999999993E5
929 928 -2.6038857999999993E5
929 929 5.1897615999999986E5
929 930 -2.5858757999999993E5
930 929 -2.6038857999999993E5
930 930 5.1897615999999986E5
930 931 -2.5858757999999993E5
931 930 -2.6038857999999993E5
931 931 5.1897615999999986E5
931 932 -2.5858757999999993E5
932 931 -2.6038857999999993E5
932 932 5.1897615999999986E5
932 933 -2.5858757999999993E5
933 932 -2.6038857999999993E5
933 933 5.1897615999999986E5
933 934 -2.5858757999999993E5
934 933 -2.6038857999999993E5
934 934 5.1897615999999986E5
934 935 -2.5858757999999993E5
935 934 -2.6038857999999993E5
935 935 5.1897615999999986E5
935 936 -2.5858757999999993E5
936 935 -2.6038857999999993E5
936 936 5.1897615999999986E5
936 937 -2.5858757999999993E5
937 936 -2.6038857999999993E5
937 937 5.1897615999999986E5
937 938 -2.5858757999999993E5
938 937 -2.6038857999999993E5
938 938 5.1897615999999986E5
938 939 -2.5858757999999993E5
939 938 -2.6038857999999993E5
939 939 5.1897615999999986E5
939 940 -2.5858757999999993E5
940 939 -2.6038857999999993E5
940 940 5.1897615999999986E5
940 941 -2.5858757999999993E5
941 940 -2.6038857999999993E5
941 941 5.1897615999999986E5
941 942 -2.5858757999999993E5
942 941 -2.6038857999999993E5
942 942 5.1897615999999986E5
942 943 -2.5858757999999993E5
943 942 -2.6038857999999993E5
943 943 5.1897615999999986E5
943 944 -2.5858757999999993E5
944 943 -2.6038857999999993E5
944 944 5.1897615999999986E5
944 945 -2.5858757999999993E5
945 944 -2.6038857999999993E5
945 945 5.1897615999999986E5
945 946 -2.5858757999999993E5
946 945 -2.6038857999999993E5
946 946 5.1897615999999986E5
946 947 -2.5858757999999993E5
947 946 -2.6038857999999993E5
947 947 5.1897615999999986E5
947 948 -2.5858757999999993E5
948 947 -2.6038857999999993E5
948 948 5.1897615999999986E5
948 949 -2.5858757999999993E5
949 948 -2.6038857999999993E5
949 949 5.1897615999999986E5
949 950 -2.5858757999999993E5
950 949 -2.6038857999999993E5
950 950 5.1897615999999986E5
950 951 -2.5858757999999993E5
951 950 -2.6038857999999993E5
951 951 5.1897615999999986E5
951 952 -2.5858757999999993E5
952 951 -2.6038857999999993E5
952 952 5.1897615999999986E5
952 953 -2.5858757999999993E5
953 952 -2.6038857999999993E5
953 953 5.1897615999999986E5
953 954 -2.5858757999999993E5
954 953 -2.6038857999999993E5
954 954 5.1897615999999986E5
954 955 -2.5858757999999993E5
955 954 -2.6038857999999993E5
955 955 5.1897615999999986E5
955 956 -2.5858757999999993E5
956 955 -2.6038857999999993E5
956 956 5.1897615999999986E5
956 957 -2.5858757999999993E5
957 956 -2.6038857999999993E5
957 957 5.1897615999999986E5
957 958 -2.5858757999999993E5
958 957 -2.6038857999999993E5
958 958 5.1897615999999986E5
958 959 -2.5858757999999993E5
959 958 -2.6038857999999993E5
959 959 5.1897615999999986E5
959 960 -2.5858757999999993E5
960 959 -2.6038857999999993E5
960 960 5.1897615999999986E5
960 961 -2.5858757999999993E5
961 960 -2.6038857999999993E5
961 961 5.1897615999999986E5
961 962 -2.5858757999999993E5
962 961 -2.6038857999999993E5
962 962 5.1897615999999986E5
962 963 -2.5858757999999993E5
963 962 -2.6038857999999993E5
963 963 5.1897615999999986E5
963 964 -2.5858757999999993E5
964 963 -2.6038857999999993E5
964 964 5.1897615999999986E5
964 965 -2.5858757999999993E5
965 964 -2.6038857999999993E5
965 965 5.1897615999999986E5
965 966 -2.5858757999999993E5
966 965 -2.6038857999999993E5
966 966 5.1897615999999986E5
966 967 -2.5858757999999993E5
967 966 -2.6038857999999993E5
967 967 5.1897615999999986E5
967 968 -2.5858757999999993E5
968 967 -2.6038857999999993E5
968 968 5.1897615999999986E5
968 969 -2.5858757999999993E5
969 968 -2.6038857999999993E5
969 969 5.1897615999999986E5
969 970 -2.5858757999999993E5
970 969 -2.6038857999999993E5
970 970 5.1897615999999986E5
970 971 -2.5858757999999993E5
971 970 -2.6038857999999993E5
971 971 5.1897615999999986E5
971 972 -2.5858757999999993E5
972 971 -2.6038857999999993E5
972 972 5.1897615999999986E5
972 973 -2.5858757999999993E5
973 972 -2.6038857999999993E5
973 973 5.1897615999999986E5
973 974 -2.5858757999999993E5
974 973 -2.6038857999999993E5
974 974 5.1897615999999986E5
974 975 -2.5858757999999993E5
975 974 -2.6038857999999993E5
975 975 5.1897615999999986E5
975 976 -2.5858757999999993E5
976 975 -2.6038857999999993E5
976 976 5.1897615999999986E5
976 977 -2.5858757999999993E5
977 976 -2.6038857999999993E5
977 977 5.1897615999999986E5
977 978 -2.5858757999999993E5
978 977 -2.6038857999999993E5
978 978 5.1897615999999986E5
978 979 -2.5858757999999993E5
979 978 -2.6038857999999993E5
979 979 5.1897615999999986E5
979 980 -2.5858757999999993E5
980 979 -2.6038857999999993E5
980 980 5.1897615999999986E5
980 981 -2.5858757999999993E5
981 980 -2.6038857999999993E5
981 981 5.1897615999999986E5
981 982 -2.5858757999999993E5
982 981 -2.6038857999999993E5
982 982 5.1897615999999986E5
982 983 -2.5858757999999993E5
983 982 -2.6038857999999993E5
983 983 5.1897615999999986E5
983 984 -2.5858757999999993E5
984 983 -2.6038857999999993E5
984 984 5.1897615999999986E5
984 985 -2.5858757999999993E5
985 984 -2.6038857999999993E5
985 985 5.1897615999999986E5
985 986 -2.5858757999999993E5
986 985 -2.6038857999999993E5
986 986 5.1897615999999986E5
986 987 -2.5858757999999993E5
987 986 -2.6038857999999993E5
987 987 5.1897615999999986E5
987 988 -2.5858757999999993E5
988 987 -2.6038857999999993E5
988 988 5.1897615999999986E5
988 989 -2.5858757999999993E5
989 988 -2.6038857999999993E5
989 989 5.1897615999999986E5
989 990 -2.5858757999999993E5
990 989 -2.6038857999999993E5
990 990 5.1897615999999986E5
990 991 -2.5858757999999993E5
991 990 -2.6038857999999993E5
991 991 5.1897615999999986E5
991 992 -2.5858757999999993E5
992 991 -2.6038857999999993E5
992 992 5.1897615999999986E5
992 993 -2.5858757999999993E5
993 992 -2.6038857999999993E5
993 993 5.1897615999999986E5
993 994 -2.5858757999999993E5
994 993 -2.6038857999999993E5
994 994 5.1897615999999986E5
994 995 -2.5858757999999993E5
995 994 -2.6038857999999993E5
995 995 5.1897615999999986E5
995 996 -2.5858757999999993E5
996 995 -2.6038857999999993E5
996 996 5.1897615999999986E5
996 997 -2.5858757999999993E5
997 996 -2.6038857999999993E5
997 997 5.1897615999999986E5
997 998 -2.5858757999999993E5
998 997 -2.6038857999999993E5
998 998 5.1897615999999986E5
998 999 -2.5858757999999993E5
999 998 -2.6038857999999993E5
999 999 5.1897615999999986E5
999 1000 -2.5858757999999993E5
1000 999 -2.6038857999999993E5
1000 1000 5.1897615999999986E5
1000 1001 -2.5858757999999993E5
1001 1000 -2.6038857999999993E5
1001 1001 5.1897615999999986E5
1001 1002 -2.5858757999999993E5
1002 1001 -2.6038857999999993E5
1002 1002 5.1897615999999986E5
1002 1003 -2.5858757999999993E5
1003 1002 -2.6038857999999993E5
1003 1003 5.1897615999999986E5
1003 1004 -2.5858757999999993E5
1004 1003 -2.6038857999999993E5
1004 1004 5.1897615999999986E5
1004 1005 -2.5858757999999993E5
1005 1004 -2.6038857999999993E5
1005 1005 5.1897615999999986E5
1005 1006 -2.5858757999999993E5
1006 1005 -2.6038857999999993E5
1006 1006 5.1897615999999986E5
1006 1007 -2.5858757999999993E5
1007 1006 -2.6038857999999993E5
1007 1007 5.1897615999999986E5
1007 1008 -2.5858757999999993E5
1008 1007 -2.6038857999999993E5
1008 1008 5.1897615999999986E5
1008 1009 -2.5858757999999993E5
1009 1008 -2.6038857999999993E5
1009 1009 5.1897615999999986E5
1009 1010 -2.5858757999999993E5
1010 1009 -2.6038857999999993E5
1010 1010 5.1897615999999986E5
1010 1011 -2.5858757999999993E5
1011 1010 -2.6038857999999993E5
1011 1011 5.1897615999999986E5
1011 1012 -2.5858757999999993E5
1012 1011 -2.6038857999999993E5
1012 1012 5.1897615999999986E5
1012 1013 -2.5858757999999993E5
1013 1012 -2.6038857999999993E5
1013 1013 5.1897615999999986E5
1013 1014 -2.5858757999999993E5
1014 1013 -2.6038857999999993E5
1014 1014 5.1897615999999986E5
1014 1015 -2.5858757999999993E5
1015 1014 -2.6038857999999993E5
1015 1015 5.1897615999999986E5
1015 1016 -2.5858757999999993E5
1016 1015 -2.6038857999999993E5
1016 1016 5.1897615999999986E5
1016 1017 -2.5858757999999993E5
1017 1016 -2.6038857999999993E5
1017 1017 5.1897615999999986E5
1017 1018 -2.5858757999999993E5
1018 1017 -2.6038857999999993E5
1018 1018 5.1897615999999986E5
1018 1019 -2.5858757999999993E5
1019 1018 -2.6038857999999993E5
1019 1019 5.1897615999999986E5
1019 1020 -2.5858757999999993E5
1020 1019 -2.6038857999999993E5
1020 1020 5.1897615999999986E5
1020 1021 -2.5858757999999993E5
1021 1020 -2.6038857999999993E5
1021 1021 5.1897615999999986E5
1021 1022 -2.5858757999999993E5
1022 1021 -2.6038857999999993E5
1022 1022 5.1897615999999986E5
1022 1023 -2.5858757999999993E5
1023 1022 -2.6038857999999993E5
1023 1023 5.1897615999999986E5
1023 1024 -2.5858757999999993E5
1024 1023 -2.6038857999999993E5
1024 1024 5.1897615999999986E5
1024 1025 -2.5858757999999993E5
1025 1024 -2.6038857999999993E5
1025 1025 5.1897615999999986E5
1025 1026 -2.5858757999999993E5
1026 1025 -2.6038857999999993E5
1026 1026 5.1897615999999986E5
1026 1027 -2.5858757999999993E5
1027 1026 -2.6038857999999993E5
1027 1027 5.1897615999999986E5
1027 1028 -2.5858757999999993E5
1028 1027 -2.6038857999999993E5
1028 1028 5.1897615999999986E5
1028 1029 -2.5858757999999993E5
1029 1028 -2.6038857999999993E5
1029 1029 5.1897615999999986E5
1029 1030 -2.5858757999999993E5
1030 1029 -2.6038857999999993E5
1030 1030 5.1897615999999986E5
1030 1031 -2.5858757999999993E5
1031 1030 -2.6038857999999993E5
1031 1031 5.1897615999999986E5
1031 1032 -2.5858757999999993E5
1032 1031 -2.6038857999999993E5
1032 1032 5.1897615999999986E5
1032 1033 -2.5858757999999993E5
1033 1032 -2.6038857999999993E5
1033 1033 5.1897615999999986E5
1033 1034 -2.5858757999999993E5
1034 1033 -2.6038857999999993E5
1034 1034 5.1897615999999986E5
1034 1035 -2.5858757999999993E5
1035 1034 -2.6038857999999993E5
1035 1035 5.1897615999999986E5
1035 1036 -2.5858757999999993E5
1036 1035 -2.6038857999999993E5
1036 1036 5.1897615999999986E5
1036 1037 -2.5858757999999993E5
1037 1036 -2.6038857999999993E5
1037 1037 5.1897615999999986E5
1037 1038 -2.5858757999999993E5
1038 1037 -2.6038857999999993E5
1038 1038 5.1897615999999986E5
1038 1039 -2.5858757999999993E5
1039 1038 -2.6038857999999993E5
1039 1039 5.1897615999999986E5
1039 1040 -2.5858757999999993E5
1040 1039 -2.6038857999999993E5
1040 1040 5.1897615999999986E5
1040 1041 -2.5858757999999993E5
1041 1040 -2.6038857999999993E5
1041 1041 5.1897615999999986E5
1041 1042 -2.5858757999999993E5
1042 1041 -2.6038857999999993E5
1042 1042 5.1897615999999986E5
1042 1043 -2.5858757999999993E5
1043 1042 -2.6038857999999993E5
1043 1043 5.1897615999999986E5
1043 1044 -2.5858757999999993E5
1044 1043 -2.6038857999999993E5
1044 1044 5.1897615999999986E5
1044 1045 -2.5858757999999993E5
1045 1044 -2.6038857999999993E5
1045 1045 5.1897615999999986E5
1045 1046 -2.5858757999999993E5
1046 1045 -2.6038857999999993E5
1046 1046 5.1897615999999986E5
1046 1047 -2.5858757999999993E5
1047 1046 -2.6038857999999993E5
1047 1047 5.1897615999999986E5
1047 1048 -2.5858757999999993E5
1048 1047 -2.6038857999999993E5
1048 1048 5.1897615999999986E5
1048 1049 -2.5858757999999993E5
1049 1048 -2.6038857999999993E5
1049 1049 5.1897615999999986E5
1049 1050 -2.5858757999999993E5
1050 1049 -2.6038857999999993E5
1050 1050 5.1897615999999986E5
1050 1051 -2.5858757999999993E5
1051 1050 -2.6038857999999993E5
1051 1051 5.1897615999999986E5
1051 1052 -2.5858757999999993E5
1052 1051 -2.6038857999999993E5
1052 1052 5.1897615999999986E5
1052 1053 -2.5858757999999993E5
1053 1052 -2.6038857999999993E5
1053 1053 5.1897615999999986E5
1053 1054 -2.5858757999999993E5
1054 1053 -2.6038857999999993E5
1054 1054 5.1897615999999986E5
1054 1055 -2.5858757999999993E5
1055 1054 -2.6038857999999993E5
1055 1055 5.1897615999999986E5
1055 1056 -2.5858757999999993E5
1056 1055 -2.6038857999999993E5
1056 1056 5.1897615999999986E5
1056 1057 -2.5858757999999993E5
1057 1056 -2.6038857999999993E5
1057 1057 5.1897615999999986E5
1057 1058 -2.5858757999999993E5
1058 1057 -2.6038857999999993E5
1058 1058 5.1897615999999986E5
1058 1059 -2.5858757999999993E5
1059 1058 -2.6038857999999993E5
1059 1059 5.1897615999999986E5
1059 1060 -2.5858757999999993E5
1060 1059 -2.6038857999999993E5
1060 1060 5.1897615999999986E5
1060 1061 -2.5858757999999993E5
1061 1060 -2.6038857999999993E5
1061 1061 5.1897615999999986E5
1061 1062 -2.5858757999999993E5
1062 1061 -2.6038857999999993E5
1062 1062 5.1897615999999986E5
1062 1063 -2.5858757999999993E5
1063 1062 -2.6038857999999993E5
1063 1063 5.1897615999999986E5
1063 1064 -2.5858757999999993E5
1064 1063 -2.6038857999999993E5
1064 1064 5.1897615999999986E5
1064 1065 -2.5858757999999993E5
1065 1064 -2.6038857999999993E5
1065 1065 5.1897615999999986E5
1065 1066 -2.5858757999999993E5
1066 1065 -2.6038857999999993E5
1066 1066 5.1897615999999986E5
1066 1067 -2.5858757999999993E5
1067 1066 -2.6038857999999993E5
1067 1067 5.1897615999999986E5
1067 1068 -2.5858757999999993E5
1068 1067 -2.6038857999999993E5
1068 1068 5.1897615999999986E5
1068 1069 -2.5858757999999993E5
1069 1068 -2.6038857999999993E5
1069 1069 5.1897615999999986E5
1069 1070 -2.5858757999999993E5
1070 1069 -2.6038857999999993E5
1070 1070 5.1897615999999986E5
1070 1071 -2.5858757999999993E5
1071 1070 -2.6038857999999993E5
1071 1071 5.1897615999999986E5
1071 1072 -2.5858757999999993E5
1072 1071 -2.6038857999999993E5
1072 1072 5.1897615999999986E5
1072 1073 -2.5858757999999993E5
1073 1072 -2.6038857999999993E5
1073 1073 5.1897615999999986E5
1073 1074 -2.5858757999999993E5
1074 1073 -2.6038857999999993E5
1074 1074 5.1897615999999986E5
1074 1075 -2.5858757999999993E5
1075 1074 -2.6038857999999993E5
1075 1075 5.1897615999999986E5
1075 1076 -2.5858757999999993E5
1076 1075 -2.6038857999999993E5
1076 1076 5.1897615999999986E5
1076 1077 -2.5858757999999993E5
1077 1076 -2.6038857999999993E5
1077 1077 5.1897615999999986E5
1077 1078 -2.5858757999999993E5
1078 1077 -2.6038857999999993E5
1078 1078 5.1897615999999986E5
1078 1079 -2.5858757999999993E5
1079 1078 -2.6038857999999993E5
1079 1079 5.1897615999999986E5
1079 1080 -2.5858757999999993E5
1080 1079 -2.6038857999999993E5
1080 1080 5.1897615999999986E5
1080 1081 -2.5858757999999993E5
1081 1080 -2.6038857999999993E5
1081 1081 5.1897615999999986E5
1081 1082 -2.5858757999999993E5
1082 1081 -2.6038857999999993E5
1082 1082 5.1897615999999986E5
1082 1083 -2.5858757999999993E5
1083 1082 -2.6038857999999993E5
1083 1083 5.1897615999999986E5
1083 1084 -2.5858757999999993E5
1084 1083 -2.6038857999999993E5
1084 1084 5.1897615999999986E5
1084 1085 -2.5858757999999993E5
1085 1084 -2.6038857999999993E5
1085 1085 5.1897615999999986E5
1085 1086 -2.5858757999999993E5
1086 1085 -2.6038857999999993E5
1086 1086 5.1897615999999986E5
1086 1087 -2.5858757999999993E5
1087 1086 -2.6038857999999993E5
1087 1087 5.1897615999999986E5
1087 1088 -2.5858757999999993E5
1088 1087 -2.6038857999999993E5
1088 1088 5.1897615999999986E5
1088 1089 -2.5858757999999993E5
1089 1088 -2.6038857999999993E5
1089 1089 5.1897615999999986E5
1089 1090 -2.5858757999999993E5
1090 1089 -2.6038857999999993E5
1090 1090 5.1897615999999986E5
1090 1091 -2.5858757999999993E5
1091 1090 -2.6038857999999993E5
1091 1091 5.1897615999999986E5
1091 1092 -2.5858757999999993E5
1092 1091 -2.6038857999999993E5
1092 1092 5.1897615999999986E5
1092 1093 -2.5858757999999993E5
1093 1092 -2.6038857999999993E5
1093 1093 5.1897615999999986E5
1093 1094 -2.5858757999999993E5
1094 1093 -2.6038857999999993E5
1094 1094 5.1897615999999986E5
1094 1095 -2.5858757999999993E5
1095 1094 -2.6038857999999993E5
1095 1095 5.1897615999999986E5
1095 1096 -2.5858757999999993E5
1096 1095 -2.6038857999999993E5
1096 1096 5.1897615999999986E5
1096 1097 -2.5858757999999993E5
1097 1096 -2.6038857999999993E5
1097 1097 5.1897615999999986E5
1097 1098 -2.5858757999999993E5
1098 1097 -2.6038857999999993E5
1098 1098 5.1897615999999986E5
1098 1099 -2.5858757999999993E5
1099 1098 -2.6038857999999993E5
1099 1099 5.1897615999999986E5
1099 1100 -2.5858757999999993E5
1100 1099 -2.6038857999999993E5
1100 1100 5.1897615999999986E5
1100 1101 -2.5858757999999993E5
1101 1100 -2.6038857999999993E5
1101 1101 5.1897615999999986E5
1101 1102 -2.5858757999999993E5
1102 1101 -2.6038857999999993E5
1102 1102 5.1897615999999986E5
1102 1103 -2.5858757999999993E5
1103 1102 -2.6038857999999993E5
1103 1103 5.1897615999999986E5
1103 1104 -2.5858757999999993E5
1104 1103 -2.6038857999999993E5
1104 1104 5.1897615999999986E5
1104 1105 -2.5858757999999993E5
1105 1104 -2.6038857999999993E5
1105 1105 5.1897615999999986E5
1105 1106 -2.5858757999999993E5
1106 1105 -2.6038857999999993E5
1106 1106 5.1897615999999986E5
1106 1107 -2.5858757999999993E5
1107 1106 -2.6038857999999993E5
1107 1107 5.1897615999999986E5
1107 1108 -2.5858757999999993E5
1108 1107 -2.6038857999999993E5
1108 1108 5.1897615999999986E5
1108 1109 -2.5858757999999993E5
1109 1108 -2.6038857999999993E5
1109 1109 5.1897615999999986E5
1109 1110 -2.5858757999999993E5
1110 1109 -2.6038857999999993E5
1110 1110 5.1897615999999986E5
1110 1111 -2.5858757999999993E5
1111 1110 -2.6038857999999993E5
1111 1111 5.1897615999999986E5
1111 1112 -2.5858757999999993E5
1112 1111 -2.6038857999999993E5
1112 1112 5.1897615999999986E5
1112 1113 -2.5858757999999993E5
1113 1112 -2.6038857999999993E5
1113 1113 5.1897615999999986E5
1113 1114 -2.5858757999999993E5
1114 1113 -2.6038857999999993E5
1114 1114 5.1897615999999986E5
1114 1115 -2.5858757999999993E5
1115 1114 -2.6038857999999993E5
1115 1115 5.1897615999999986E5
1115 1116 -2.5858757999999993E5
1116 1115 -2.6038857999999993E5
1116 1116 5.1897615999999986E5
1116 1117 -2.5858757999999993E5
1117 1116 -2.6038857999999993E5
1117 1117 5.1897615999999986E5
1117 1118 -2.5858757999999993E5
1118 1117 -2.6038857999999993E5
1118 1118 5.1897615999999986E5
1118 1119 -2.5858757999999993E5
1119 1118 -2.6038857999999993E5
1119 1119 5.1897615999999986E5
1119 1120 -2.5858757999999993E5
1120 1119 -2.6038857999999993E5
1120 1120 5.1897615999999986E5
1120 1121 -2.5858757999999993E5
1121 1120 -2.6038857999999993E5
1121 1121 5.1897615999999986E5
1121 1122 -2.5858757999999993E5
1122 1121 -2.6038857999999993E5
1122 1122 5.1897615999999986E5
1122 1123 -2.5858757999999993E5
1123 1122 -2.6038857999999993E5
1123 1123 5.1897615999999986E5
1123 1124 -2.5858757999999993E5
1124 1123 -2.6038857999999993E5
1124 1124 5.1897615999999986E5
1124 1125 -2.5858757999999993E5
1125 1124 -2.6038857999999993E5
1125 1125 5.1897615999999986E5
1125 1126 -2.5858757999999993E5
1126 1125 -2.6038857999999993E5
1126 1126 5.1897615999999986E5
1126 1127 -2.5858757999999993E5
1127 1126 -2.6038857999999993E5
1127 1127 5.1897615999999986E5
1127 1128 -2.5858757999999993E5
1128 1127 -2.6038857999999993E5
1128 1128 5.1897615999999986E5
1128 1129 -2.5858757999999993E5
1129 1128 -2.6038857999999993E5
1129 1129 5.1897615999999986E5
1129 1130 -2.5858757999999993E5
1130 1129 -2.6038857999999993E5
1130 1130 5.1897615999999986E5
1130 1131 -2.5858757999999993E5
1131 1130 -2.6038857999999993E5
1131 1131 5.1897615999999986E5
1131 1132 -2.5858757999999993E5
1132 1131 -2.6038857999999993E5
1132 1132 5.1897615999999986E5
1132 1133 -2.5858757999999993E5
1133 1132 -2.6038857999999993E5
1133 1133 5.1897615999999986E5
1133 1134 -2.5858757999999993E5
1134 1133 -2.6038857999999993E5
1134 1134 5.1897615999999986E5
1134 1135 -2.5858757999999993E5
1135 1134 -2.6038857999999993E5
1135 1135 5.1897615999999986E5
1135 1136 -2.5858757999999993E5
1136 1135 -2.6038857999999993E5
1136 1136 5.1897615999999986E5
1136 1137 -2.5858757999999993E5
1137 1136 -2.6038857999999993E5
1137 1137 5.1897615999999986E5
1137 1138 -2.5858757999999993E5
1138 1137 -2.6038857999999993E5
1138 1138 5.1897615999999986E5
1138 1139 -2.5858757999999993E5
1139 1138 -2.6038857999999993E5
1139 1139 5.1897615999999986E5
1139 1140 -2.5858757999999993E5
1140 1139 -2.6038857999999993E5
1140 1140 5.1897615999999986E5
1140 1141 -2.5858757999999993E5
1141 1140 -2.6038857999999993E5
1141 1141 5.1897615999999986E5
1141 1142 -2.5858757999999993E5
1142 1141 -2.6038857999999993E5
1142 1142 5.1897615999999986E5
1142 1143 -2.5858757999999993E5
1143 1142 -2.6038857999999993E5
1143 1143 5.1897615999999986E5
1143 1144 -2.5858757999999993E5
1144 1143 -2.6038857999999993E5
1144 1144 5.1897615999999986E5
1144 1145 -2.5858757999999993E5
1145 1144 -2.6038857999999993E5
1145 1145 5.1897615999999986E5
1145 1146 -2.5858757999999993E5
1146 1145 -2.6038857999999993E5
1146 1146 5.1897615999999986E5
1146 1147 -2.5858757999999993E5
1147 1146 -2.6038857999999993E5
1147 1147 5.1897615999999986E5
1147 1148 -2.5858757999999993E5
1148 1147 -2.6038857999999993E5
1148 1148 5.1897615999999986E5
1148 1149 -2.5858757999999993E5
1149 1148 -2.6038857999999993E5
1149 1149 5.1897615999999986E5
1149 1150 -2.5858757999999993E5
1150 1149 -2.6038857999999993E5
1150 1150 5.1897615999999986E5
1150 1151 -2.5858757999999993E5
1151 1150 -2.6038857999999993E5
1151 1151 5.1897615999999986E5
1151 1152 -2.5858757999999993E5
1152 1151 -2.6038857999999993E5
1152 1152 5.1897615999999986E5
1152 1153 -2.5858757999999993E5
1153 1152 -2.6038857999999993E5
1153 1153 5.1897615999999986E5
1153 1154 -2.5858757999999993E5
1154 1153 -2.6038857999999993E5
1154 1154 5.1897615999999986E5
1154 1155 -2.5858757999999993E5
1155 1154 -2.6038857999999993E5
1155 1155 5.1897615999999986E5
1155 1156 -2.5858757999999993E5
1156 1155 -2.6038857999999993E5
1156 1156 5.1897615999999986E5
1156 1157 -2.5858757999999993E5
1157 1156 -2.6038857999999993E5
1157 1157 5.1897615999999986E5
1157 1158 -2.5858757999999993E5
1158 1157 -2.6038857999999993E5
1158 1158 5.1897615999999986E5
1158 1159 -2.5858757999999993E5
1159 1158 -2.6038857999999993E5
1159 1159 5.1897615999999986E5
1159 1160 -2.5858757999999993E5
1160 1159 -2.6038857999999993E5
1160 1160 5.1897615999999986E5
1160 1161 -2.5858757999999993E5
1161 1160 -2.6038857999999993E5
1161 1161 5.1897615999999986E5
1161 1162 -2.5858757999999993E5
1162 1161 -2.6038857999999993E5
1162 1162 5.1897615999999986E5
1162 1163 -2.5858757999999993E5
1163 1162 -2.6038857999999993E5
1163 1163 5.1897615999999986E5
1163 1164 -2.5858757999999993E5
1164 1163 -2.6038857999999993E5
1164 1164 5.1897615999999986E5
1164 1165 -2.5858757999999993E5
1165 1164 -2.6038857999999993E5
1165 1165 5.1897615999999986E5
1165 1166 -2.5858757999999993E5
1166 1165 -2.6038857999999993E5
1166 1166 5.1897615999999986E5
1166 1167 -2.5858757999999993E5
1167 1166 -2.6038857999999993E5
1167 1167 5.1897615999999986E5
1167 1168 -2.5858757999999993E5
1168 1167 -2.6038857999999993E5
1168 1168 5.1897615999999986E5
1168 1169 -2.5858757999999993E5
1169 1168 -2.6038857999999993E5
1169 1169 5.1897615999999986E5
1169 1170 -2.5858757999999993E5
1170 1169 -2.6038857999999993E5
1170 1170 5.1897615999999986E5
1170 1171 -2.5858757999999993E5
1171 1170 -2.6038857999999993E5
1171 1171 5.1897615999999986E5
1171 1172 -2.5858757999999993E5
1172 1171 -2.6038857999999993E5
1172 1172 5.1897615999999986E5
1172 1173 -2.5858757999999993E5
1173 1172 -2.6038857999999993E5
1173 1173 5.1897615999999986E5
1173 1174 -2.5858757999999993E5
1174 1173 -2.6038857999999993E5
1174 1174 5.1897615999999986E5
1174 1175 -2.5858757999999993E5
1175 1174 -2.6038857999999993E5
1175 1175 5.1897615999999986E5
1175 1176 -2.5858757999999993E5
1176 1175 -2.6038857999999993E5
1176 1176 5.1897615999999986E5
1176 1177 -2.5858757999999993E5
1177 1176 -2.6038857999999993E5
1177 1177 5.1897615999999986E5
1177 1178 -2.5858757999999993E5
1178 1177 -2.6038857999999993E5
1178 1178 5.1897615999999986E5
1178 1179 -2.5858757999999993E5
1179 1178 -2.6038857999999993E5
1179 1179 5.1897615999999986E5
1179 1180 -2.5858757999999993E5
1180 1179 -2.6038857999999993E5
1180 1180 5.1897615999999986E5
1180 1181 -2.5858757999999993E5
1181 1180 -2.6038857999999993E5
1181 1181 5.1897615999999986E5
1181 1182 -2.5858757999999993E5
1182 1181 -2.6038857999999993E5
1182 1182 5.1897615999999986E5
1182 1183 -2.5858757999999993E5
1183 1182 -2.6038857999999993E5
1183 1183 5.1897615999999986E5
1183 1184 -2.5858757999999993E5
1184 1183 -2.6038857999999993E5
1184 1184 5.1897615999999986E5
1184 1185 -2.5858757999999993E5
1185 1184 -2.6038857999999993E5
1185 1185 5.1897615999999986E5
1185 1186 -2.5858757999999993E5
1186 1185 -2.6038857999999993E5
1186 1186 5.1897615999999986E5
1186 1187 -2.5858757999999993E5
1187 1186 -2.6038857999999993E5
1187 1187 5.1897615999999986E5
1187 1188 -2.5858757999999993E5
1188 1187 -2.6038857999999993E5
1188 1188 5.1897615999999986E5
1188 1189 -2.5858757999999993E5
1189 1188 -2.6038857999999993E5
1189 1189 5.1897615999999986E5
1189 1190 -2.5858757999999993E5
1190 1189 -2.6038857999999993E5
1190 1190 5.1897615999999986E5
1190 1191 -2.5858757999999993E5
1191 1190 -2.6038857999999993E5
1191 1191 5.1897615999999986E5
1191 1192 -2.5858757999999993E5
1192 1191 -2.6038857999999993E5
1192 1192 5.1897615999999986E5
1192 1193 -2.5858757999999993E5
1193 1192 -2.6038857999999993E5
1193 1193 5.1897615999999986E5
1193 1194 -2.5858757999999993E5
1194 1193 -2.6038857999999993E5
1194 1194 5.1897615999999986E5
1194 1195 -2.5858757999999993E5
1195 1194 -2.6038857999999993E5
1195 1195 5.1897615999999986E5
1195 1196 -2.5858757999999993E5
1196 1195 -2.6038857999999993E5
1196 1196 5.1897615999999986E5
1196 1197 -2.5858757999999993E5
1197 1196 -2.6038857999999993E5
1197 1197 5.1897615999999986E5
1197 1198 -2.5858757999999993E5
1198 1197 -2.6038857999999993E5
1198 1198 5.1897615999999986E5
1198 1199 -2.5858757999999993E5
1199 1198 -2.6038857999999993E5
1199 1199 5.1897615999999986E5
1199 1200 -2.5858757999999993E5
1200 1199 -2.6038857999999993E5
1200 1200 5.1897615999999986E5
1200 1201 -2.5858757999999993E5
1201 1200 -2.6038857999999993E5
1201 1201 5.1897615999999986E5
1201 1202 -2.5858757999999993E5
1202 1201 -2.6038857999999993E5
1202 1202 5.1897615999999986E5
1202 1203 -2.5858757999999993E5
1203 1202 -2.6038857999999993E5
1203 1203 5.1897615999999986E5
1203 1204 -2.5858757999999993E5
1204 1203 -2.6038857999999993E5
1204 1204 5.1897615999999986E5
1204 1205 -2.5858757999999993E5
1205 1204 -2.6038857999999993E5
1205 1205 5.1897615999999986E5
1205 1206 -2.5858757999999993E5
1206 1205 -2.6038857999999993E5
1206 1206 5.1897615999999986E5
1206 1207 -2.5858757999999993E5
1207 1206 -2.6038857999999993E5
1207 1207 5.1897615999999986E5
1207 1208 -2.5858757999999993E5
1208 1207 -2.6038857999999993E5
1208 1208 5.1897615999999986E5
1208 1209 -2.5858757999999993E5
1209 1208 -2.6038857999999993E5
1209 1209 5.1897615999999986E5
1209 1210 -2.5858757999999993E5
1210 1209 -2.6038857999999993E5
1210 1210 5.1897615999999986E5
1210 1211 -2.5858757999999993E5
1211 1210 -2.6038857999999993E5
1211 1211 5.1897615999999986E5
1211 1212 -2.5858757999999993E5
1212 1211 -2.6038857999999993E5
1212 1212 5.1897615999999986E5
1212 1213 -2.5858757999999993E5
1213 1212 -2.6038857999999993E5
1213 1213 5.1897615999999986E5
1213 1214 -2.5858757999999993E5
1214 1213 -2.6038857999999993E5
1214 1214 5.1897615999999986E5
1214 1215 -2.5858757999999993E5
1215 1214 -2.6038857999999993E5
1215 1215 5.1897615999999986E5
1215 1216 -2.5858757999999993E5
1216 1215 -2.6038857999999993E5
1216 1216 5.1897615999999986E5
1216 1217 -2.5858757999999993E5
1217 1216 -2.6038857999999993E5
1217 1217 5.1897615999999986E5
1217 1218 -2.5858757999999993E5
1218 1217 -2.6038857999999993E5
1218 1218 5.1897615999999986E5
1218 1219 -2.5858757999999993E5
1219 1218 -2.6038857999999993E5
1219 1219 5.1897615999999986E5
1219 1220 -2.5858757999999993E5
1220 1219 -2.6038857999999993E5
1220 1220 5.1897615999999986E5
1220 1221 -2.5858757999999993E5
1221 1220 -2.6038857999999993E5
1221 1221 5.1897615999999986E5
1221 1222 -2.5858757999999993E5
1222 1221 -2.6038857999999993E5
1222 1222 5.1897615999999986E5
1222 1223 -2.5858757999999993E5
1223 1222 -2.6038857999999993E5
1223 1223 5.1897615999999986E5
1223 1224 -2.5858757999999993E5
1224 1223 -2.6038857999999993E5
1224 1224 5.1897615999999986E5
1224 1225 -2.5858757999999993E5
1225 1224 -2.6038857999999993E5
1225 1225 5.1897615999999986E5
1225 1226 -2.5858757999999993E5
1226 1225 -2.6038857999999993E5
1226 1226 5.1897615999999986E5
1226 1227 -2.5858757999999993E5
1227 1226 -2.6038857999999993E5
1227 1227 5.1897615999999986E5
1227 1228 -2.5858757999999993E5
1228 1227 -2.6038857999999993E5
1228 1228 5.1897615999999986E5
1228 1229 -2.5858757999999993E5
1229 1228 -2.6038857999999993E5
1229 1229 5.1897615999999986E5
1229 1230 -2.5858757999999993E5
1230 1229 -2.6038857999999993E5
1230 1230 5.1897615999999986E5
1230 1231 -2.5858757999999993E5
1231 1230 -2.6038857999999993E5
1231 1231 5.1897615999999986E5
1231 1232 -2.5858757999999993E5
1232 1231 -2.6038857999999993E5
1232 1232 5.1897615999999986E5
1232 1233 -2.5858757999999993E5
1233 1232 -2.6038857999999993E5
1233 1233 5.1897615999999986E5
1233 1234 -2.5858757999999993E5
1234 1233 -2.6038857999999993E5
1234 1234 5.1897615999999986E5
1234 1235 -2.5858757999999993E5
1235 1234 -2.6038857999999993E5
1235 1235 5.1897615999999986E5
1235 1236 -2.5858757999999993E5
1236 1235 -2.6038857999999993E5
1236 1236 5.1897615999999986E5
1236 1237 -2.5858757999999993E5
1237 1236 -2.6038857999999993E5
1237 1237 5.1897615999999986E5
1237 1238 -2.5858757999999993E5
1238 1237 -2.6038857999999993E5
1238 1238 5.1897615999999986E5
1238 1239 -2.5858757999999993E5
1239 1238 -2.6038857999999993E5
1239 1239 5.1897615999999986E5
1239 1240 -2.5858757999999993E5
1240 1239 -2.6038857999999993E5
1240 1240 5.1897615999999986E5
1240 1241 -2.5858757999999993E5
1241 1240 -2.6038857999999993E5
1241 1241 5.1897615999999986E5
1241 1242 -2.5858757999999993E5
1242 1241 -2.6038857999999993E5
1242 1242 5.1897615999999986E5
1242 1243 -2.5858757999999993E5
1243 1242 -2.6038857999999993E5
1243 1243 5.1897615999999986E5
1243 1244 -2.5858757999999993E5
1244 1243 -2.6038857999999993E5
1244 1244 5.1897615999999986E5
1244 1245 -2.5858757999999993E5
1245 1244 -2.6038857999999993E5
1245 1245 5.1897615999999986E5
1245 1246 -2.5858757999999993E5
1246 1245 -2.6038857999999993E5
1246 1246 5.1897615999999986E5
1246 1247 -2.5858757999999993E5
1247 1246 -2.6038857999999993E5
1247 1247 5.1897615999999986E5
1247 1248 -2.5858757999999993E5
1248 1247 -2.6038857999999993E5
1248 1248 5.1897615999999986E5
1248 1249 -2.5858757999999993E5
1249 1248 -2.6038857999999993E5
1249 1249 5.1897615999999986E5
1249 1250 -2.5858757999999993E5
1250 1249 -2.6038857999999993E5
1250 1250 5.1897615999999986E5
1250 1251 -2.5858757999999993E5
1251 1250 -2.6038857999999993E5
1251 1251 5.1897615999999986E5
1251 1252 -2.5858757999999993E5
1252 1251 -2.6038857999999993E5
1252 1252 5.1897615999999986E5
1252 1253 -2.5858757999999993E5
1253 1252 -2.6038857999999993E5
1253 1253 5.1897615999999986E5
1253 1254 -2.5858757999999993E5
1254 1253 -2.6038857999999993E5
1254 1254 5.1897615999999986E5
1254 1255 -2.5858757999999993E5
1255 1254 -2.6038857999999993E5
1255 1255 5.1897615999999986E5
1255 1256 -2.5858757999999993E5
1256 1255 -2.6038857999999993E5
1256 1256 5.1897615999999986E5
1256 1257 -2.5858757999999993E5
1257 1256 -2.6038857999999993E5
1257 1257 5.1897615999999986E5
1257 1258 -2.5858757999999993E5
1258 1257 -2.6038857999999993E5
1258 1258 5.1897615999999986E5
1258 1259 -2.5858757999999993E5
1259 1258 -2.6038857999999993E5
1259 1259 5.1897615999999986E5
1259 1260 -2.5858757999999993E5
1260 1259 -2.6038857999999993E5
1260 1260 5.1897615999999986E5
1260 1261 -2.5858757999999993E5
1261 1260 -2.6038857999999993E5
1261 1261 5.1897615999999986E5
1261 1262 -2.5858757999999993E5
1262 1261 -2.6038857999999993E5
1262 1262 5.1897615999999986E5
1262 1263 -2.5858757999999993E5
1263 1262 -2.6038857999999993E5
1263 1263 5.1897615999999986E5
1263 1264 -2.5858757999999993E5
1264 1263 -2.6038857999999993E5
1264 1264 5.1897615999999986E5
1264 1265 -2.5858757999999993E5
1265 1264 -2.6038857999999993E5
1265 1265 5.1897615999999986E5
1265 1266 -2.5858757999999993E5
1266 1265 -2.6038857999999993E5
1266 1266 5.1897615999999986E5
1266 1267 -2.5858757999999993E5
1267 1266 -2.6038857999999993E5
1267 1267 5.1897615999999986E5
1267 1268 -2.5858757999999993E5
1268 1267 -2.6038857999999993E5
1268 1268 5.1897615999999986E5
1268 1269 -2.5858757999999993E5
1269 1268 -2.6038857999999993E5
1269 1269 5.1897615999999986E5
1269 1270 -2.5858757999999993E5
1270 1269 -2.6038857999999993E5
1270 1270 5.1897615999999986E5
1270 1271 -2.5858757999999993E5
1271 1270 -2.6038857999999993E5
1271 1271 5.1897615999999986E5
1271 1272 -2.5858757999999993E5
1272 1271 -2.6038857999999993E5
1272 1272 5.1897615999999986E5
1272 1273 -2.5858757999999993E5
1273 1272 -2.6038857999999993E5
1273 1273 5.1897615999999986E5
1273 1274 -2.5858757999999993E5
1274 1273 -2.6038857999999993E5
1274 1274 5.1897615999999986E5
1274 1275 -2.5858757999999993E5
1275 1274 -2.6038857999999993E5
1275 1275 5.1897615999999986E5
1275 1276 -2.5858757999999993E5
1276 1275 -2.6038857999999993E5
1276 1276 5.1897615999999986E5
1276 1277 -2.5858757999999993E5
1277 1276 -2.6038857999999993E5
1277 1277 5.1897615999999986E5
1277 1278 -2.5858757999999993E5
1278 1277 -2.6038857999999993E5
1278 1278 5.1897615999999986E5
1278 1279 -2.5858757999999993E5
1279 1278 -2.6038857999999993E5
1279 1279 5.1897615999999986E5
1279 1280 -2.5858757999999993E5
1280 1279 -2.6038857999999993E5
1280 1280 5.1897615999999986E5
1280 1281 -2.5858757999999993E5
1281 1280 -2.6038857999999993E5
1281 1281 5.1897615999999986E5
1281 1282 -2.5858757999999993E5
1282 1281 -2.6038857999999993E5
1282 1282 5.1897615999999986E5
1282 1283 -2.5858757999999993E5
1283 1282 -2.6038857999999993E5
1283 1283 5.1897615999999986E5
1283 1284 -2.5858757999999993E5
1284 1283 -2.6038857999999993E5
1284 1284 5.1897615999999986E5
1284 1285 -2.5858757999999993E5
1285 1284 -2.6038857999999993E5
1285 1285 5.1897615999999986E5
1285 1286 -2.5858757999999993E5
1286 1285 -2.6038857999999993E5
1286 1286 5.1897615999999986E5
1286 1287 -2.5858757999999993E5
1287 1286 -2.6038857999999993E5
1287 1287 5.1897615999999986E5
1287 1288 -2.5858757999999993E5
1288 1287 -2.6038857999999993E5
1288 1288 5.1897615999999986E5
1288 1289 -2.5858757999999993E5
1289 1288 -2.6038857999999993E5
1289 1289 5.1897615999999986E5
1289 1290 -2.5858757999999993E5
1290 1289 -2.6038857999999993E5
1290 1290 5.1897615999999986E5
1290 1291 -2.5858757999999993E5
1291 1290 -2.6038857999999993E5
1291 1291 5.1897615999999986E5
1291 1292 -2.5858757999999993E5
1292 1291 -2.6038857999999993E5
1292 1292 5.1897615999999986E5
1292 1293 -2.5858757999999993E5
1293 1292 -2.6038857999999993E5
1293 1293 5.1897615999999986E5
1293 1294 -2.5858757999999993E5
1294 1293 -2.6038857999999993E5
1294 1294 5.1897615999999986E5
1294 1295 -2.5858757999999993E5
1295 1294 -2.6038857999999993E5
1295 1295 5.1897615999999986E5
1295 1296 -2.5858757999999993E5
1296 1295 -2.6038857999999993E5
1296 1296 5.1897615999999986E5
1296 1297 -2.5858757999999993E5
1297 1296 -2.6038857999999993E5
1297 1297 5.1897615999999986E5
1297 1298 -2.5858757999999993E5
1298 1297 -2.6038857999999993E5
1298 1298 5.1897615999999986E5
1298 1299 -2.5858757999999993E5
1299 1298 -2.6038857999999993E5
1299 1299 5.1897615999999986E5
1299 1300 -2.5858757999999993E5
1300 1299 -2.6038857999999993E5
1300 1300 5.1897615999999986E5
1300 1301 -2.5858757999999993E5
1301 1300 -2.6038857999999993E5
1301 1301 5.1897615999999986E5
1301 1302 -2.5858757999999993E5
1302 1301 -2.6038857999999993E5
1302 1302 5.1897615999999986E5
1302 1303 -2.5858757999999993E5
1303 1302 -2.6038857999999993E5
1303 1303 5.1897615999999986E5
1303 1304 -2.5858757999999993E5
1304 1303 -2.6038857999999993E5
1304 1304 5.1897615999999986E5
1304 1305 -2.5858757999999993E5
1305 1304 -2.6038857999999993E5
1305 1305 5.1897615999999986E5
1305 1306 -2.5858757999999993E5
1306 1305 -2.6038857999999993E5
1306 1306 5.1897615999999986E5
1306 1307 -2.5858757999999993E5
1307 1306 -2.6038857999999993E5
1307 1307 5.1897615999999986E5
1307 1308 -2.5858757999999993E5
1308 1307 -2.6038857999999993E5
1308 1308 5.1897615999999986E5
1308 1309 -2.5858757999999993E5
1309 1308 -2.6038857999999993E5
1309 1309 5.1897615999999986E5
1309 1310 -2.5858757999999993E5
1310 1309 -2.6038857999999993E5
1310 1310 5.1897615999999986E5
1310 1311 -2.5858757999999993E5
1311 1310 -2.6038857999999993E5
1311 1311 5.1897615999999986E5
1311 1312 -2.5858757999999993E5
1312 1311 -2.6038857999999993E5
1312 1312 5.1897615999999986E5
1312 1313 -2.5858757999999993E5
1313 1312 -2.6038857999999993E5
1313 1313 5.1897615999999986E5
1313 1314 -2.5858757999999993E5
1314 1313 -2.6038857999999993E5
1314 1314 5.1897615999999986E5
1314 1315 -2.5858757999999993E5
1315 1314 -2.6038857999999993E5
1315 1315 5.1897615999999986E5
1315 1316 -2.5858757999999993E5
1316 1315 -2.6038857999999993E5
1316 1316 5.1897615999999986E5
1316 1317 -2.5858757999999993E5
1317 1316 -2.6038857999999993E5
1317 1317 5.1897615999999986E5
1317 1318 -2.5858757999999993E5
1318 1317 -2.6038857999999993E5
1318 1318 5.1897615999999986E5
1318 1319 -2.5858757999999993E5
1319 1318 -2.6038857999999993E5
1319 1319 5.1897615999999986E5
1319 1320 -2.5858757999999993E5
1320 1319 -2.6038857999999993E5
1320 1320 5.1897615999999986E5
1320 1321 -2.5858757999999993E5
1321 1320 -2.6038857999999993E5
1321 1321 5.1897615999999986E5
1321 1322 -2.5858757999999993E5
1322 1321 -2.6038857999999993E5
1322 1322 5.1897615999999986E5
1322 1323 -2.5858757999999993E5
1323 1322 -2.6038857999999993E5
1323 1323 5.1897615999999986E5
1323 1324 -2.5858757999999993E5
1324 1323 -2.6038857999999993E5
1324 1324 5.1897615999999986E5
1324 1325 -2.5858757999999993E5
1325 1324 -2.6038857999999993E5
1325 1325 5.1897615999999986E5
1325 1326 -2.5858757999999993E5
1326 1325 -2.6038857999999993E5
1326 1326 5.1897615999999986E5
1326 1327 -2.5858757999999993E5
1327 1326 -2.6038857999999993E5
1327 1327 5.1897615999999986E5
1327 1328 -2.5858757999999993E5
1328 1327 -2.6038857999999993E5
1328 1328 5.1897615999999986E5
1328 1329 -2.5858757999999993E5
1329 1328 -2.6038857999999993E5
1329 1329 5.1897615999999986E5
1329 1330 -2.5858757999999993E5
1330 1329 -2.6038857999999993E5
1330 1330 5.1897615999999986E5
1330 1331 -2.5858757999999993E5
1331 1330 -2.6038857999999993E5
1331 1331 5.1897615999999986E5
1331 1332 -2.5858757999999993E5
1332 1331 -2.6038857999999993E5
1332 1332 5.1897615999999986E5
1332 1333 -2.5858757999999993E5
1333 1332 -2.6038857999999993E5
1333 1333 5.1897615999999986E5
1333 1334 -2.5858757999999993E5
1334 1333 -2.6038857999999993E5
1334 1334 5.1897615999999986E5
1334 1335 -2.5858757999999993E5
1335 1334 -2.6038857999999993E5
1335 1335 5.1897615999999986E5
1335 1336 -2.5858757999999993E5
1336 1335 -2.6038857999999993E5
1336 1336 5.1897615999999986E5
1336 1337 -2.5858757999999993E5
1337 1336 -2.6038857999999993E5
1337 1337 5.1897615999999986E5
1337 1338 -2.5858757999999993E5
1338 1337 -2.6038857999999993E5
1338 1338 5.1897615999999986E5
1338 1339 -2.5858757999999993E5
1339 1338 -2.6038857999999993E5
1339 1339 5.1897615999999986E5
1339 1340 -2.5858757999999993E5
1340 1339 -2.6038857999999993E5
1340 1340 5.1897615999999986E5
1340 1341 -2.5858757999999993E5
1341 1340 -2.6038857999999993E5
1341 1341 5.1897615999999986E5
1341 1342 -2.5858757999999993E5
1342 1341 -2.6038857999999993E5
1342 1342 5.1897615999999986E5
1342 1343 -2.5858757999999993E5
1343 1342 -2.6038857999999993E5
1343 1343 5.1897615999999986E5
1343 1344 -2.5858757999999993E5
1344 1343 -2.6038857999999993E5
1344 1344 5.1897615999999986E5
1344 1345 -2.5858757999999993E5
1345 1344 -2.6038857999999993E5
1345 1345 5.1897615999999986E5
1345 1346 -2.5858757999999993E5
1346 1345 -2.6038857999999993E5
1346 1346 5.1897615999999986E5
1346 1347 -2.5858757999999993E5
1347 1346 -2.6038857999999993E5
1347 1347 5.1897615999999986E5
1347 1348 -2.5858757999999993E5
1348 1347 -2.6038857999999993E5
1348 1348 5.1897615999999986E5
1348 1349 -2.5858757999999993E5
1349 1348 -2.6038857999999993E5
1349 1349 5.1897615999999986E5
1349 1350 -2.5858757999999993E5
1350 1349 -2.6038857999999993E5
1350 1350 5.1897615999999986E5
1350 1351 -2.5858757999999993E5
1351 1350 -2.6038857999999993E5
1351 1351 5.1897615999999986E5
1351 1352 -2.5858757999999993E5
1352 1351 -2.6038857999999993E5
1352 1352 5.1897615999999986E5
1352 1353 -2.5858757999999993E5
1353 1352 -2.6038857999999993E5
1353 1353 5.1897615999999986E5
1353 1354 -2.5858757999999993E5
1354 1353 -2.6038857999999993E5
1354 1354 5.1897615999999986E5
1354 1355 -2.5858757999999993E5
1355 1354 -2.6038857999999993E5
1355 1355 5.1897615999999986E5
1355 1356 -2.5858757999999993E5
1356 1355 -2.6038857999999993E5
1356 1356 5.1897615999999986E5
1356 1357 -2.5858757999999993E5
1357 1356 -2.6038857999999993E5
1357 1357 5.1897615999999986E5
1357 1358 -2.5858757999999993E5
1358 1357 -2.6038857999999993E5
1358 1358 5.1897615999999986E5
1358 1359 -2.5858757999999993E5
1359 1358 -2.6038857999999993E5
1359 1359 5.1897615999999986E5
1359 1360 -2.5858757999999993E5
1360 1359 -2.6038857999999993E5
1360 1360 5.1897615999999986E5
1360 1361 -2.5858757999999993E5
1361 1360 -2.6038857999999993E5
1361 1361 5.1897615999999986E5
1361 1362 -2.5858757999999993E5
1362 1361 -2.6038857999999993E5
1362 1362 5.1897615999999986E5
1362 1363 -2.5858757999999993E5
1363 1362 -2.6038857999999993E5
1363 1363 5.1897615999999986E5
1363 1364 -2.5858757999999993E5
1364 1363 -2.6038857999999993E5
1364 1364 5.1897615999999986E5
1364 1365 -2.5858757999999993E5
1365 1364 -2.6038857999999993E5
1365 1365 5.1897615999999986E5
1365 1366 -2.5858757999999993E5
1366 1365 -2.6038857999999993E5
1366 1366 5.1897615999999986E5
1366 1367 -2.5858757999999993E5
1367 1366 -2.6038857999999993E5
1367 1367 5.1897615999999986E5
1367 1368 -2.5858757999999993E5
1368 1367 -2.6038857999999993E5
1368 1368 5.1897615999999986E5
1368 1369 -2.5858757999999993E5
1369 1368 -2.6038857999999993E5
1369 1369 5.1897615999999986E5
1369 1370 -2.5858757999999993E5
1370 1369 -2.6038857999999993E5
1370 1370 5.1897615999999986E5
1370 1371 -2.5858757999999993E5
1371 1370 -2.6038857999999993E5
1371 1371 5.1897615999999986E5
1371 1372 -2.5858757999999993E5
1372 1371 -2.6038857999999993E5
1372 1372 5.1897615999999986E5
1372 1373 -2.5858757999999993E5
1373 1372 -2.6038857999999993E5
1373 1373 5.1897615999999986E5
1373 1374 -2.5858757999999993E5
1374 1373 -2.6038857999999993E5
1374 1374 5.1897615999999986E5
1374 1375 -2.5858757999999993E5
1375 1374 -2.6038857999999993E5
1375 1375 5.1897615999999986E5
1375 1376 -2.5858757999999993E5
1376 1375 -2.6038857999999993E5
1376 1376 5.1897615999999986E5
1376 1377 -2.5858757999999993E5
1377 1376 -2.6038857999999993E5
1377 1377 5.1897615999999986E5
1377 1378 -2.5858757999999993E5
1378 1377 -2.6038857999999993E5
1378 1378 5.1897615999999986E5
1378 1379 -2.5858757999999993E5
1379 1378 -2.6038857999999993E5
1379 1379 5.1897615999999986E5
1379 1380 -2.5858757999999993E5
1380 1379 -2.6038857999999993E5
1380 1380 5.1897615999999986E5
1380 1381 -2.5858757999999993E5
1381 1380 -2.6038857999999993E5
1381 1381 5.1897615999999986E5
1381 1382 -2.5858757999999993E5
1382 1381 -2.6038857999999993E5
1382 1382 5.1897615999999986E5
1382 1383 -2.5858757999999993E5
1383 1382 -2.6038857999999993E5
1383 1383 5.1897615999999986E5
1383 1384 -2.5858757999999993E5
1384 1383 -2.6038857999999993E5
1384 1384 5.1897615999999986E5
1384 1385 -2.5858757999999993E5
1385 1384 -2.6038857999999993E5
1385 1385 5.1897615999999986E5
1385 1386 -2.5858757999999993E5
1386 1385 -2.6038857999999993E5
1386 1386 5.1897615999999986E5
1386 1387 -2.5858757999999993E5
1387 1386 -2.6038857999999993E5
1387 1387 5.1897615999999986E5
1387 1388 -2.5858757999999993E5
1388 1387 -2.6038857999999993E5
1388 1388 5.1897615999999986E5
1388 1389 -2.5858757999999993E5
1389 1388 -2.6038857999999993E5
1389 1389 5.1897615999999986E5
1389 1390 -2.5858757999999993E5
1390 1389 -2.6038857999999993E5
1390 1390 5.1897615999999986E5
1390 1391 -2.5858757999999993E5
1391 1390 -2.6038857999999993E5
1391 1391 5.1897615999999986E5
1391 1392 -2.5858757999999993E5
1392 1391 -2.6038857999999993E5
1392 1392 5.1897615999999986E5
1392 1393 -2.5858757999999993E5
1393 1392 -2.6038857999999993E5
1393 1393 5.1897615999999986E5
1393 1394 -2.5858757999999993E5
1394 1393 -2.6038857999999993E5
1394 1394 5.1897615999999986E5
1394 1395 -2.5858757999999993E5
1395 1394 -2.6038857999999993E5
1395 1395 5.1897615999999986E5
1395 1396 -2.5858757999999993E5
1396 1395 -2.6038857999999993E5
1396 1396 5.1897615999999986E5
1396 1397 -2.5858757999999993E5
1397 1396 -2.6038857999999993E5
1397 1397 5.1897615999999986E5
1397 1398 -2.5858757999999993E5
1398 1397 -2.6038857999999993E5
1398 1398 5.1897615999999986E5
1398 1399 -2.5858757999999993E5
1399 1398 -2.6038857999999993E5
1399 1399 5.1897615999999986E5
1399 1400 -2.5858757999999993E5
1400 1399 -2.6038857999999993E5
1400 1400 5.1897615999999986E5
1400 1401 -2.5858757999999993E5
1401 1400 -2.6038857999999993E5
1401 1401 5.1897615999999986E5
1401 1402 -2.5858757999999993E5
1402 1401 -2.6038857999999993E5
1402 1402 5.1897615999999986E5
1402 1403 -2.5858757999999993E5
1403 1402 -2.6038857999999993E5
1403 1403 5.1897615999999986E5
1403 1404 -2.5858757999999993E5
1404 1403 -2.6038857999999993E5
1404 1404 5.1897615999999986E5
1404 1405 -2.5858757999999993E5
1405 1404 -2.6038857999999993E5
1405 1405 5.1897615999999986E5
1405 1406 -2.5858757999999993E5
1406 1405 -2.6038857999999993E5
1406 1406 5.1897615999999986E5
1406 1407 -2.5858757999999993E5
1407 1406 -2.6038857999999993E5
1407 1407 5.1897615999999986E5
1407 1408 -2.5858757999999993E5
1408 1407 -2.6038857999999993E5
1408 1408 5.1897615999999986E5
1408 1409 -2.5858757999999993E5
1409 1408 -2.6038857999999993E5
1409 1409 5.1897615999999986E5
1409 1410 -2.5858757999999993E5
1410 1409 -2.6038857999999993E5
1410 1410 5.1897615999999986E5
1410 1411 -2.5858757999999993E5
1411 1410 -2.6038857999999993E5
1411 1411 5.1897615999999986E5
1411 1412 -2.5858757999999993E5
1412 1411 -2.6038857999999993E5
1412 1412 5.1897615999999986E5
1412 1413 -2.5858757999999993E5
1413 1412 -2.6038857999999993E5
1413 1413 5.1897615999999986E5
1413 1414 -2.5858757999999993E5
1414 1413 -2.6038857999999993E5
1414 1414 5.1897615999999986E5
1414 1415 -2.5858757999999993E5
1415 1414 -2.6038857999999993E5
1415 1415 5.1897615999999986E5
1415 1416 -2.5858757999999993E5
1416 1415 -2.6038857999999993E5
1416 1416 5.1897615999999986E5
1416 1417 -2.5858757999999993E5
1417 1416 -2.6038857999999993E5
1417 1417 5.1897615999999986E5
1417 1418 -2.5858757999999993E5
1418 1417 -2.6038857999999993E5
1418 1418 5.1897615999999986E5
1418 1419 -2.5858757999999993E5
1419 1418 -2.6038857999999993E5
1419 1419 5.1897615999999986E5
1419 1420 -2.5858757999999993E5
1420 1419 -2.6038857999999993E5
1420 1420 5.1897615999999986E5
1420 1421 -2.5858757999999993E5
1421 1420 -2.6038857999999993E5
1421 1421 5.1897615999999986E5
1421 1422 -2.5858757999999993E5
1422 1421 -2.6038857999999993E5
1422 1422 5.1897615999999986E5
1422 1423 -2.5858757999999993E5
1423 1422 -2.6038857999999993E5
1423 1423 5.1897615999999986E5
1423 1424 -2.5858757999999993E5
1424 1423 -2.6038857999999993E5
1424 1424 5.1897615999999986E5
1424 1425 -2.5858757999999993E5
1425 1424 -2.6038857999999993E5
1425 1425 5.1897615999999986E5
1425 1426 -2.5858757999999993E5
1426 1425 -2.6038857999999993E5
1426 1426 5.1897615999999986E5
1426 1427 -2.5858757999999993E5
1427 1426 -2.6038857999999993E5
1427 1427 5.1897615999999986E5
1427 1428 -2.5858757999999993E5
1428 1427 -2.6038857999999993E5
1428 1428 5.1897615999999986E5
1428 1429 -2.5858757999999993E5
1429 1428 -2.6038857999999993E5
1429 1429 5.1897615999999986E5
1429 1430 -2.5858757999999993E5
1430 1429 -2.6038857999999993E5
1430 1430 5.1897615999999986E5
1430 1431 -2.5858757999999993E5
1431 1430 -2.6038857999999993E5
1431 1431 5.1897615999999986E5
1431 1432 -2.5858757999999993E5
1432 1431 -2.6038857999999993E5
1432 1432 5.1897615999999986E5
1432 1433 -2.5858757999999993E5
1433 1432 -2.6038857999999993E5
1433 1433 5.1897615999999986E5
1433 1434 -2.5858757999999993E5
1434 1433 -2.6038857999999993E5
1434 1434 5.1897615999999986E5
1434 1435 -2.5858757999999993E5
1435 1434 -2.6038857999999993E5
1435 1435 5.1897615999999986E5
1435 1436 -2.5858757999999993E5
1436 1435 -2.6038857999999993E5
1436 1436 5.1897615999999986E5
1436 1437 -2.5858757999999993E5
1437 1436 -2.6038857999999993E5
1437 1437 5.1897615999999986E5
1437 1438 -2.5858757999999993E5
1438 1437 -2.6038857999999993E5
1438 1438 5.1897615999999986E5
1438 1439 -2.5858757999999993E5
1439 1438 -2.6038857999999993E5
1439 1439 5.1897615999999986E5
1439 1440 -2.5858757999999993E5
1440 1439 -2.6038857999999993E5
1440 1440 5.1897615999999986E5
1440 1441 -2.5858757999999993E5
1441 1440 -2.6038857999999993E5
1441 1441 5.1897615999999986E5
1441 1442 -2.5858757999999993E5
1442 1441 -2.6038857999999993E5
1442 1442 5.1897615999999986E5
1442 1443 -2.5858757999999993E5
1443 1442 -2.6038857999999993E5
1443 1443 5.1897615999999986E5
1443 1444 -2.5858757999999993E5
1444 1443 -2.6038857999999993E5
1444 1444 5.1897615999999986E5
1444 1445 -2.5858757999999993E5
1445 1444 -2.6038857999999993E5
1445 1445 5.1897615999999986E5
1445 1446 -2.5858757999999993E5
1446 1445 -2.6038857999999993E5
1446 1446 5.1897615999999986E5
1446 1447 -2.5858757999999993E5
1447 1446 -2.6038857999999993E5
1447 1447 5.1897615999999986E5
1447 1448 -2.5858757999999993E5
1448 1447 -2.6038857999999993E5
1448 1448 5.1897615999999986E5
1448 1449 -2.5858757999999993E5
1449 1448 -2.6038857999999993E5
1449 1449 5.1897615999999986E5
1449 1450 -2.5858757999999993E5
1450 1449 -2.6038857999999993E5
1450 1450 5.1897615999999986E5
1450 1451 -2.5858757999999993E5
1451 1450 -2.6038857999999993E5
1451 1451 5.1897615999999986E5
1451 1452 -2.5858757999999993E5
1452 1451 -2.6038857999999993E5
1452 1452 5.1897615999999986E5
1452 1453 -2.5858757999999993E5
1453 1452 -2.6038857999999993E5
1453 1453 5.1897615999999986E5
1453 1454 -2.5858757999999993E5
1454 1453 -2.6038857999999993E5
1454 1454 5.1897615999999986E5
1454 1455 -2.5858757999999993E5
1455 1454 -2.6038857999999993E5
1455 1455 5.1897615999999986E5
1455 1456 -2.5858757999999993E5
1456 1455 -2.6038857999999993E5
1456 1456 5.1897615999999986E5
1456 1457 -2.5858757999999993E5
1457 1456 -2.6038857999999993E5
1457 1457 5.1897615999999986E5
1457 1458 -2.5858757999999993E5
1458 1457 -2.6038857999999993E5
1458 1458 5.1897615999999986E5
1458 1459 -2.5858757999999993E5
1459 1458 -2.6038857999999993E5
1459 1459 5.1897615999999986E5
1459 1460 -2.5858757999999993E5
1460 1459 -2.6038857999999993E5
1460 1460 5.1897615999999986E5
1460 1461 -2.5858757999999993E5
1461 1460 -2.6038857999999993E5
1461 1461 5.1897615999999986E5
1461 1462 -2.5858757999999993E5
1462 1461 -2.6038857999999993E5
1462 1462 5.1897615999999986E5
1462 1463 -2.5858757999999993E5
1463 1462 -2.6038857999999993E5
1463 1463 5.1897615999999986E5
1463 1464 -2.5858757999999993E5
1464 1463 -2.6038857999999993E5
1464 1464 5.1897615999999986E5
1464 1465 -2.5858757999999993E5
1465 1464 -2.6038857999999993E5
1465 1465 5.1897615999999986E5
1465 1466 -2.5858757999999993E5
1466 1465 -2.6038857999999993E5
1466 1466 5.1897615999999986E5
1466 1467 -2.5858757999999993E5
1467 1466 -2.6038857999999993E5
1467 1467 5.1897615999999986E5
1467 1468 -2.5858757999999993E5
1468 1467 -2.6038857999999993E5
1468 1468 5.1897615999999986E5
1468 1469 -2.5858757999999993E5
1469 1468 -2.6038857999999993E5
1469 1469 5.1897615999999986E5
1469 1470 -2.5858757999999993E5
1470 1469 -2.6038857999999993E5
1470 1470 5.1897615999999986E5
1470 1471 -2.5858757999999993E5
1471 1470 -2.6038857999999993E5
1471 1471 5.1897615999999986E5
1471 1472 -2.5858757999999993E5
1472 1471 -2.6038857999999993E5
1472 1472 5.1897615999999986E5
1472 1473 -2.5858757999999993E5
1473 1472 -2.6038857999999993E5
1473 1473 5.1897615999999986E5
1473 1474 -2.5858757999999993E5
1474 1473 -2.6038857999999993E5
1474 1474 5.1897615999999986E5
1474 1475 -2.5858757999999993E5
1475 1474 -2.6038857999999993E5
1475 1475 5.1897615999999986E5
1475 1476 -2.5858757999999993E5
1476 1475 -2.6038857999999993E5
1476 1476 5.1897615999999986E5
1476 1477 -2.5858757999999993E5
1477 1476 -2.6038857999999993E5
1477 1477 5.1897615999999986E5
1477 1478 -2.5858757999999993E5
1478 1477 -2.6038857999999993E5
1478 1478 5.1897615999999986E5
1478 1479 -2.5858757999999993E5
1479 1478 -2.6038857999999993E5
1479 1479 5.1897615999999986E5
1479 1480 -2.5858757999999993E5
1480 1479 -2.6038857999999993E5
1480 1480 5.1897615999999986E5
1480 1481 -2.5858757999999993E5
1481 1480 -2.6038857999999993E5
1481 1481 5.1897615999999986E5
1481 1482 -2.5858757999999993E5
1482 1481 -2.6038857999999993E5
1482 1482 5.1897615999999986E5
1482 1483 -2.5858757999999993E5
1483 1482 -2.6038857999999993E5
1483 1483 5.1897615999999986E5
1483 1484 -2.5858757999999993E5
1484 1483 -2.6038857999999993E5
1484 1484 5.1897615999999986E5
1484 1485 -2.5858757999999993E5
1485 1484 -2.6038857999999993E5
1485 1485 5.1897615999999986E5
1485 1486 -2.5858757999999993E5
1486 1485 -2.6038857999999993E5
1486 1486 5.1897615999999986E5
1486 1487 -2.5858757999999993E5
1487 1486 -2.6038857999999993E5
1487 1487 5.1897615999999986E5
1487 1488 -2.5858757999999993E5
1488 1487 -2.6038857999999993E5
1488 1488 5.1897615999999986E5
1488 1489 -2.5858757999999993E5
1489 1488 -2.6038857999999993E5
1489 1489 5.1897615999999986E5
1489 1490 -2.5858757999999993E5
1490 1489 -2.6038857999999993E5
1490 1490 5.1897615999999986E5
1490 1491 -2.5858757999999993E5
1491 1490 -2.6038857999999993E5
1491 1491 5.1897615999999986E5
1491 1492 -2.5858757999999993E5
1492 1491 -2.6038857999999993E5
1492 1492 5.1897615999999986E5
1492 1493 -2.5858757999999993E5
1493 1492 -2.6038857999999993E5
1493 1493 5.1897615999999986E5
1493 1494 -2.5858757999999993E5
1494 1493 -2.6038857999999993E5
1494 1494 5.1897615999999986E5
1494 1495 -2.5858757999999993E5
1495 1494 -2.6038857999999993E5
1495 1495 5.1897615999999986E5
1495 1496 -2.5858757999999993E5
1496 1495 -2.6038857999999993E5
1496 1496 5.1897615999999986E5
1496 1497 -2.5858757999999993E5
1497 1496 -2.6038857999999993E5
1497 1497 5.1897615999999986E5
1497 1498 -2.5858757999999993E5
1498 1497 -2.6038857999999993E5
1498 1498 5.1897615999999986E5
1498 1499 -2.5858757999999993E5
1499 1498 -2.6038857999999993E5
1499 1499 5.1897615999999986E5
1499 1500 -2.5858757999999993E5
1500 1499 -2.6038857999999993E5
1500 1500 5.1897615999999986E5
1500 1501 -2.5858757999999993E5
1501 1500 -2.6038857999999993E5
1501 1501 5.1897615999999986E5
1501 1502 -2.5858757999999993E5
1502 1501 -2.6038857999999993E5
1502 1502 5.1897615999999986E5
1502 1503 -2.5858757999999993E5
1503 1502 -2.6038857999999993E5
1503 1503 5.1897615999999986E5
1503 1504 -2.5858757999999993E5
1504 1503 -2.6038857999999993E5
1504 1504 5.1897615999999986E5
1504 1505 -2.5858757999999993E5
1505 1504 -2.6038857999999993E5
1505 1505 5.1897615999999986E5
1505 1506 -2.5858757999999993E5
1506 1505 -2.6038857999999993E5
1506 1506 5.1897615999999986E5
1506 1507 -2.5858757999999993E5
1507 1506 -2.6038857999999993E5
1507 1507 5.1897615999999986E5
1507 1508 -2.5858757999999993E5
1508 1507 -2.6038857999999993E5
1508 1508 5.1897615999999986E5
1508 1509 -2.5858757999999993E5
1509 1508 -2.6038857999999993E5
1509 1509 5.1897615999999986E5
1509 1510 -2.5858757999999993E5
1510 1509 -2.6038857999999993E5
1510 1510 5.1897615999999986E5
1510 1511 -2.5858757999999993E5
1511 1510 -2.6038857999999993E5
1511 1511 5.1897615999999986E5
1511 1512 -2.5858757999999993E5
1512 1511 -2.6038857999999993E5
1512 1512 5.1897615999999986E5
1512 1513 -2.5858757999999993E5
1513 1512 -2.6038857999999993E5
1513 1513 5.1897615999999986E5
1513 1514 -2.5858757999999993E5
1514 1513 -2.6038857999999993E5
1514 1514 5.1897615999999986E5
1514 1515 -2.5858757999999993E5
1515 1514 -2.6038857999999993E5
1515 1515 5.1897615999999986E5
1515 1516 -2.5858757999999993E5
1516 1515 -2.6038857999999993E5
1516 1516 5.1897615999999986E5
1516 1517 -2.5858757999999993E5
1517 1516 -2.6038857999999993E5
1517 1517 5.1897615999999986E5
1517 1518 -2.5858757999999993E5
1518 1517 -2.6038857999999993E5
1518 1518 5.1897615999999986E5
1518 1519 -2.5858757999999993E5
1519 1518 -2.6038857999999993E5
1519 1519 5.1897615999999986E5
1519 1520 -2.5858757999999993E5
1520 1519 -2.6038857999999993E5
1520 1520 5.1897615999999986E5
1520 1521 -2.5858757999999993E5
1521 1520 -2.6038857999999993E5
1521 1521 5.1897615999999986E5
1521 1522 -2.5858757999999993E5
1522 1521 -2.6038857999999993E5
1522 1522 5.1897615999999986E5
1522 1523 -2.5858757999999993E5
1523 1522 -2.6038857999999993E5
1523 1523 5.1897615999999986E5
1523 1524 -2.5858757999999993E5
1524 1523 -2.6038857999999993E5
1524 1524 5.1897615999999986E5
1524 1525 -2.5858757999999993E5
1525 1524 -2.6038857999999993E5
1525 1525 5.1897615999999986E5
1525 1526 -2.5858757999999993E5
1526 1525 -2.6038857999999993E5
1526 1526 5.1897615999999986E5
1526 1527 -2.5858757999999993E5
1527 1526 -2.6038857999999993E5
1527 1527 5.1897615999999986E5
1527 1528 -2.5858757999999993E5
1528 1527 -2.6038857999999993E5
1528 1528 5.1897615999999986E5
1528 1529 -2.5858757999999993E5
1529 1528 -2.6038857999999993E5
1529 1529 5.1897615999999986E5
1529 1530 -2.5858757999999993E5
1530 1529 -2.6038857999999993E5
1530 1530 5.1897615999999986E5
1530 1531 -2.5858757999999993E5
1531 1530 -2.6038857999999993E5
1531 1531 5.1897615999999986E5
1531 1532 -2.5858757999999993E5
1532 1531 -2.6038857999999993E5
1532 1532 5.1897615999999986E5
1532 1533 -2.5858757999999993E5
1533 1532 -2.6038857999999993E5
1533 1533 5.1897615999999986E5
1533 1534 -2.5858757999999993E5
1534 1533 -2.6038857999999993E5
1534 1534 5.1897615999999986E5
1534 1535 -2.5858757999999993E5
1535 1534 -2.6038857999999993E5
1535 1535 5.1897615999999986E5
1535 1536 -2.5858757999999993E5
1536 1535 -2.6038857999999993E5
1536 1536 5.1897615999999986E5
1536 1537 -2.5858757999999993E5
1537 1536 -2.6038857999999993E5
1537 1537 5.1897615999999986E5
1537 1538 -2.5858757999999993E5
1538 1537 -2.6038857999999993E5
1538 1538 5.1897615999999986E5
1538 1539 -2.5858757999999993E5
1539 1538 -2.6038857999999993E5
1539 1539 5.1897615999999986E5
1539 1540 -2.5858757999999993E5
1540 1539 -2.6038857999999993E5
1540 1540 5.1897615999999986E5
1540 1541 -2.5858757999999993E5
1541 1540 -2.6038857999999993E5
1541 1541 5.1897615999999986E5
1541 1542 -2.5858757999999993E5
1542 1541 -2.6038857999999993E5
1542 1542 5.1897615999999986E5
1542 1543 -2.5858757999999993E5
1543 1542 -2.6038857999999993E5
1543 1543 5.1897615999999986E5
1543 1544 -2.5858757999999993E5
1544 1543 -2.6038857999999993E5
1544 1544 5.1897615999999986E5
1544 1545 -2.5858757999999993E5
1545 1544 -2.6038857999999993E5
1545 1545 5.1897615999999986E5
1545 1546 -2.5858757999999993E5
1546 1545 -2.6038857999999993E5
1546 1546 5.1897615999999986E5
1546 1547 -2.5858757999999993E5
1547 1546 -2.6038857999999993E5
1547 1547 5.1897615999999986E5
1547 1548 -2.5858757999999993E5
1548 1547 -2.6038857999999993E5
1548 1548 5.1897615999999986E5
1548 1549 -2.5858757999999993E5
1549 1548 -2.6038857999999993E5
1549 1549 5.1897615999999986E5
1549 1550 -2.5858757999999993E5
1550 1549 -2.6038857999999993E5
1550 1550 5.1897615999999986E5
1550 1551 -2.5858757999999993E5
1551 1550 -2.6038857999999993E5
1551 1551 5.1897615999999986E5
1551 1552 -2.5858757999999993E5
1552 1551 -2.6038857999999993E5
1552 1552 5.1897615999999986E5
1552 1553 -2.5858757999999993E5
1553 1552 -2.6038857999999993E5
1553 1553 5.1897615999999986E5
1553 1554 -2.5858757999999993E5
1554 1553 -2.6038857999999993E5
1554 1554 5.1897615999999986E5
1554 1555 -2.5858757999999993E5
1555 1554 -2.6038857999999993E5
1555 1555 5.1897615999999986E5
1555 1556 -2.5858757999999993E5
1556 1555 -2.6038857999999993E5
1556 1556 5.1897615999999986E5
1556 1557 -2.5858757999999993E5
1557 1556 -2.6038857999999993E5
1557 1557 5.1897615999999986E5
1557 1558 -2.5858757999999993E5
1558 1557 -2.6038857999999993E5
1558 1558 5.1897615999999986E5
1558 1559 -2.5858757999999993E5
1559 1558 -2.6038857999999993E5
1559 1559 5.1897615999999986E5
1559 1560 -2.5858757999999993E5
1560 1559 -2.6038857999999993E5
1560 1560 5.1897615999999986E5
1560 1561 -2.5858757999999993E5
1561 1560 -2.6038857999999993E5
1561 1561 5.1897615999999986E5
1561 1562 -2.5858757999999993E5
1562 1561 -2.6038857999999993E5
1562 1562 5.1897615999999986E5
1562 1563 -2.5858757999999993E5
1563 1562 -2.6038857999999993E5
1563 1563 5.1897615999999986E5
1563 1564 -2.5858757999999993E5
1564 1563 -2.6038857999999993E5
1564 1564 5.1897615999999986E5
1564 1565 -2.5858757999999993E5
1565 1564 -2.6038857999999993E5
1565 1565 5.1897615999999986E5
1565 1566 -2.5858757999999993E5
1566 1565 -2.6038857999999993E5
1566 1566 5.1897615999999986E5
1566 1567 -2.5858757999999993E5
1567 1566 -2.6038857999999993E5
1567 1567 5.1897615999999986E5
1567 1568 -2.5858757999999993E5
1568 1567 -2.6038857999999993E5
1568 1568 5.1897615999999986E5
1568 1569 -2.5858757999999993E5
1569 1568 -2.6038857999999993E5
1569 1569 5.1897615999999986E5
1569 1570 -2.5858757999999993E5
1570 1569 -2.6038857999999993E5
1570 1570 5.1897615999999986E5
1570 1571 -2.5858757999999993E5
1571 1570 -2.6038857999999993E5
1571 1571 5.1897615999999986E5
1571 1572 -2.5858757999999993E5
1572 1571 -2.6038857999999993E5
1572 1572 5.1897615999999986E5
1572 1573 -2.5858757999999993E5
1573 1572 -2.6038857999999993E5
1573 1573 5.1897615999999986E5
1573 1574 -2.5858757999999993E5
1574 1573 -2.6038857999999993E5
1574 1574 5.1897615999999986E5
1574 1575 -2.5858757999999993E5
1575 1574 -2.6038857999999993E5
1575 1575 5.1897615999999986E5
1575 1576 -2.5858757999999993E5
1576 1575 -2.6038857999999993E5
1576 1576 5.1897615999999986E5
1576 1577 -2.5858757999999993E5
1577 1576 -2.6038857999999993E5
1577 1577 5.1897615999999986E5
1577 1578 -2.5858757999999993E5
1578 1577 -2.6038857999999993E5
1578 1578 5.1897615999999986E5
1578 1579 -2.5858757999999993E5
1579 1578 -2.6038857999999993E5
1579 1579 5.1897615999999986E5
1579 1580 -2.5858757999999993E5
1580 1579 -2.6038857999999993E5
1580 1580 5.1897615999999986E5
1580 1581 -2.5858757999999993E5
1581 1580 -2.6038857999999993E5
1581 1581 5.1897615999999986E5
1581 1582 -2.5858757999999993E5
1582 1581 -2.6038857999999993E5
1582 1582 5.1897615999999986E5
1582 1583 -2.5858757999999993E5
1583 1582 -2.6038857999999993E5
1583 1583 5.1897615999999986E5
1583 1584 -2.5858757999999993E5
1584 1583 -2.6038857999999993E5
1584 1584 5.1897615999999986E5
1584 1585 -2.5858757999999993E5
1585 1584 -2.6038857999999993E5
1585 1585 5.1897615999999986E5
1585 1586 -2.5858757999999993E5
1586 1585 -2.6038857999999993E5
1586 1586 5.1897615999999986E5
1586 1587 -2.5858757999999993E5
1587 1586 -2.6038857999999993E5
1587 1587 5.1897615999999986E5
1587 1588 -2.5858757999999993E5
1588 1587 -2.6038857999999993E5
1588 1588 5.1897615999999986E5
1588 1589 -2.5858757999999993E5
1589 1588 -2.6038857999999993E5
1589 1589 5.1897615999999986E5
1589 1590 -2.5858757999999993E5
1590 1589 -2.6038857999999993E5
1590 1590 5.1897615999999986E5
1590 1591 -2.5858757999999993E5
1591 1590 -2.6038857999999993E5
1591 1591 5.1897615999999986E5
1591 1592 -2.5858757999999993E5
1592 1591 -2.6038857999999993E5
1592 1592 5.1897615999999986E5
1592 1593 -2.5858757999999993E5
1593 1592 -2.6038857999999993E5
1593 1593 5.1897615999999986E5
1593 1594 -2.5858757999999993E5
1594 1593 -2.6038857999999993E5
1594 1594 5.1897615999999986E5
1594 1595 -2.5858757999999993E5
1595 1594 -2.6038857999999993E5
1595 1595 5.1897615999999986E5
1595 1596 -2.5858757999999993E5
1596 1595 -2.6038857999999993E5
1596 1596 5.1897615999999986E5
1596 1597 -2.5858757999999993E5
1597 1596 -2.6038857999999993E5
1597 1597 5.1897615999999986E5
1597 1598 -2.5858757999999993E5
1598 1597 -2.6038857999999993E5
1598 1598 5.1897615999999986E5
1598 1599 -2.5858757999999993E5
1599 1598 -2.6038857999999993E5
1599 1599 5.1897615999999986E5
1599 1600 -2.5858757999999993E5
1600 1599 -2.6038857999999993E5
1600 1600 5.1897615999999986E5
1600 1601 -2.5858757999999993E5
1601 1600 -2.6038857999999993E5
1601 1601 5.1897615999999986E5
1601 1602 -2.5858757999999993E5
1602 1601 -2.6038857999999993E5
1602 1602 5.1897615999999986E5
1602 1603 -2.5858757999999993E5
1603 1602 -2.6038857999999993E5
1603 1603 5.1897615999999986E5
1603 1604 -2.5858757999999993E5
1604 1603 -2.6038857999999993E5
1604 1604 5.1897615999999986E5
1604 1605 -2.5858757999999993E5
1605 1604 -2.6038857999999993E5
1605 1605 5.1897615999999986E5
1605 1606 -2.5858757999999993E5
1606 1605 -2.6038857999999993E5
1606 1606 5.1897615999999986E5
1606 1607 -2.5858757999999993E5
1607 1606 -2.6038857999999993E5
1607 1607 5.1897615999999986E5
1607 1608 -2.5858757999999993E5
1608 1607 -2.6038857999999993E5
1608 1608 5.1897615999999986E5
1608 1609 -2.5858757999999993E5
1609 1608 -2.6038857999999993E5
1609 1609 5.1897615999999986E5
1609 1610 -2.5858757999999993E5
1610 1609 -2.6038857999999993E5
1610 1610 5.1897615999999986E5
1610 1611 -2.5858757999999993E5
1611 1610 -2.6038857999999993E5
1611 1611 5.1897615999999986E5
1611 1612 -2.5858757999999993E5
1612 1611 -2.6038857999999993E5
1612 1612 5.1897615999999986E5
1612 1613 -2.5858757999999993E5
1613 1612 -2.6038857999999993E5
1613 1613 5.1897615999999986E5
1613 1614 -2.5858757999999993E5
1614 1613 -2.6038857999999993E5
1614 1614 5.1897615999999986E5
1614 1615 -2.5858757999999993E5
1615 1614 -2.6038857999999993E5
1615 1615 5.1897615999999986E5
1615 1616 -2.5858757999999993E5
1616 1615 -2.6038857999999993E5
1616 1616 5.1897615999999986E5
1616 1617 -2.5858757999999993E5
1617 1616 -2.6038857999999993E5
1617 1617 5.1897615999999986E5
1617 1618 -2.5858757999999993E5
1618 1617 -2.6038857999999993E5
1618 1618 5.1897615999999986E5
1618 1619 -2.5858757999999993E5
1619 1618 -2.6038857999999993E5
1619 1619 5.1897615999999986E5
1619 1620 -2.5858757999999993E5
1620 1619 -2.6038857999999993E5
1620 1620 5.1897615999999986E5
1620 1621 -2.5858757999999993E5
1621 1620 -2.6038857999999993E5
1621 1621 5.1897615999999986E5
1621 1622 -2.5858757999999993E5
1622 1621 -2.6038857999999993E5
1622 1622 5.1897615999999986E5
1622 1623 -2.5858757999999993E5
1623 1622 -2.6038857999999993E5
1623 1623 5.1897615999999986E5
1623 1624 -2.5858757999999993E5
1624 1623 -2.6038857999999993E5
1624 1624 5.1897615999999986E5
1624 1625 -2.5858757999999993E5
1625 1624 -2.6038857999999993E5
1625 1625 5.1897615999999986E5
1625 1626 -2.5858757999999993E5
1626 1625 -2.6038857999999993E5
1626 1626 5.1897615999999986E5
1626 1627 -2.5858757999999993E5
1627 1626 -2.6038857999999993E5
1627 1627 5.1897615999999986E5
1627 1628 -2.5858757999999993E5
1628 1627 -2.6038857999999993E5
1628 1628 5.1897615999999986E5
1628 1629 -2.5858757999999993E5
1629 1628 -2.6038857999999993E5
1629 1629 5.1897615999999986E5
1629 1630 -2.5858757999999993E5
1630 1629 -2.6038857999999993E5
1630 1630 5.1897615999999986E5
1630 1631 -2.5858757999999993E5
1631 1630 -2.6038857999999993E5
1631 1631 5.1897615999999986E5
1631 1632 -2.5858757999999993E5
1632 1631 -2.6038857999999993E5
1632 1632 5.1897615999999986E5
1632 1633 -2.5858757999999993E5
1633 1632 -2.6038857999999993E5
1633 1633 5.1897615999999986E5
1633 1634 -2.5858757999999993E5
1634 1633 -2.6038857999999993E5
1634 1634 5.1897615999999986E5
1634 1635 -2.5858757999999993E5
1635 1634 -2.6038857999999993E5
1635 1635 5.1897615999999986E5
1635 1636 -2.5858757999999993E5
1636 1635 -2.6038857999999993E5
1636 1636 5.1897615999999986E5
1636 1637 -2.5858757999999993E5
1637 1636 -2.6038857999999993E5
1637 1637 5.1897615999999986E5
1637 1638 -2.5858757999999993E5
1638 1637 -2.6038857999999993E5
1638 1638 5.1897615999999986E5
1638 1639 -2.5858757999999993E5
1639 1638 -2.6038857999999993E5
1639 1639 5.1897615999999986E5
1639 1640 -2.5858757999999993E5
1640 1639 -2.6038857999999993E5
1640 1640 5.1897615999999986E5
1640 1641 -2.5858757999999993E5
1641 1640 -2.6038857999999993E5
1641 1641 5.1897615999999986E5
1641 1642 -2.5858757999999993E5
1642 1641 -2.6038857999999993E5
1642 1642 5.1897615999999986E5
1642 1643 -2.5858757999999993E5
1643 1642 -2.6038857999999993E5
1643 1643 5.1897615999999986E5
1643 1644 -2.5858757999999993E5
1644 1643 -2.6038857999999993E5
1644 1644 5.1897615999999986E5
1644 1645 -2.5858757999999993E5
1645 1644 -2.6038857999999993E5
1645 1645 5.1897615999999986E5
1645 1646 -2.5858757999999993E5
1646 1645 -2.6038857999999993E5
1646 1646 5.1897615999999986E5
1646 1647 -2.5858757999999993E5
1647 1646 -2.6038857999999993E5
1647 1647 5.1897615999999986E5
1647 1648 -2.5858757999999993E5
1648 1647 -2.6038857999999993E5
1648 1648 5.1897615999999986E5
1648 1649 -2.5858757999999993E5
1649 1648 -2.6038857999999993E5
1649 1649 5.1897615999999986E5
1649 1650 -2.5858757999999993E5
1650 1649 -2.6038857999999993E5
1650 1650 5.1897615999999986E5
1650 1651 -2.5858757999999993E5
1651 1650 -2.6038857999999993E5
1651 1651 5.1897615999999986E5
1651 1652 -2.5858757999999993E5
1652 1651 -2.6038857999999993E5
1652 1652 5.1897615999999986E5
1652 1653 -2.5858757999999993E5
1653 1652 -2.6038857999999993E5
1653 1653 5.1897615999999986E5
1653 1654 -2.5858757999999993E5
1654 1653 -2.6038857999999993E5
1654 1654 5.1897615999999986E5
1654 1655 -2.5858757999999993E5
1655 1654 -2.6038857999999993E5
1655 1655 5.1897615999999986E5
1655 1656 -2.5858757999999993E5
1656 1655 -2.6038857999999993E5
1656 1656 5.1897615999999986E5
1656 1657 -2.5858757999999993E5
1657 1656 -2.6038857999999993E5
1657 1657 5.1897615999999986E5
1657 1658 -2.5858757999999993E5
1658 1657 -2.6038857999999993E5
1658 1658 5.1897615999999986E5
1658 1659 -2.5858757999999993E5
1659 1658 -2.6038857999999993E5
1659 1659 5.1897615999999986E5
1659 1660 -2.5858757999999993E5
1660 1659 -2.6038857999999993E5
1660 1660 5.1897615999999986E5
1660 1661 -2.5858757999999993E5
1661 1660 -2.6038857999999993E5
1661 1661 5.1897615999999986E5
1661 1662 -2.5858757999999993E5
1662 1661 -2.6038857999999993E5
1662 1662 5.1897615999999986E5
1662 1663 -2.5858757999999993E5
1663 1662 -2.6038857999999993E5
1663 1663 5.1897615999999986E5
1663 1664 -2.5858757999999993E5
1664 1663 -2.6038857999999993E5
1664 1664 5.1897615999999986E5
1664 1665 -2.5858757999999993E5
1665 1664 -2.6038857999999993E5
1665 1665 5.1897615999999986E5
1665 1666 -2.5858757999999993E5
1666 1665 -2.6038857999999993E5
1666 1666 5.1897615999999986E5
1666 1667 -2.5858757999999993E5
1667 1666 -2.6038857999999993E5
1667 1667 5.1897615999999986E5
1667 1668 -2.5858757999999993E5
1668 1667 -2.6038857999999993E5
1668 1668 5.1897615999999986E5
1668 1669 -2.5858757999999993E5
1669 1668 -2.6038857999999993E5
1669 1669 5.1897615999999986E5
1669 1670 -2.5858757999999993E5
1670 1669 -2.6038857999999993E5
1670 1670 5.1897615999999986E5
1670 1671 -2.5858757999999993E5
1671 1670 -2.6038857999999993E5
1671 1671 5.1897615999999986E5
1671 1672 -2.5858757999999993E5
1672 1671 -2.6038857999999993E5
1672 1672 5.1897615999999986E5
1672 1673 -2.5858757999999993E5
1673 1672 -2.6038857999999993E5
1673 1673 5.1897615999999986E5
1673 1674 -2.5858757999999993E5
1674 1673 -2.6038857999999993E5
1674 1674 5.1897615999999986E5
1674 1675 -2.5858757999999993E5
1675 1674 -2.6038857999999993E5
1675 1675 5.1897615999999986E5
1675 1676 -2.5858757999999993E5
1676 1675 -2.6038857999999993E5
1676 1676 5.1897615999999986E5
1676 1677 -2.5858757999999993E5
1677 1676 -2.6038857999999993E5
1677 1677 5.1897615999999986E5
1677 1678 -2.5858757999999993E5
1678 1677 -2.6038857999999993E5
1678 1678 5.1897615999999986E5
1678 1679 -2.5858757999999993E5
1679 1678 -2.6038857999999993E5
1679 1679 5.1897615999999986E5
1679 1680 -2.5858757999999993E5
1680 1679 -2.6038857999999993E5
1680 1680 5.1897615999999986E5
1680 1681 -2.5858757999999993E5
1681 1680 -2.6038857999999993E5
1681 1681 5.1897615999999986E5
1681 1682 -2.5858757999999993E5
1682 1681 -2.6038857999999993E5
1682 1682 5.1897615999999986E5
1682 1683 -2.5858757999999993E5
1683 1682 -2.6038857999999993E5
1683 1683 5.1897615999999986E5
1683 1684 -2.5858757999999993E5
1684 1683 -2.6038857999999993E5
1684 1684 5.1897615999999986E5
1684 1685 -2.5858757999999993E5
1685 1684 -2.6038857999999993E5
1685 1685 5.1897615999999986E5
1685 1686 -2.5858757999999993E5
1686 1685 -2.6038857999999993E5
1686 1686 5.1897615999999986E5
1686 1687 -2.5858757999999993E5
1687 1686 -2.6038857999999993E5
1687 1687 5.1897615999999986E5
1687 1688 -2.5858757999999993E5
1688 1687 -2.6038857999999993E5
1688 1688 5.1897615999999986E5
1688 1689 -2.5858757999999993E5
1689 1688 -2.6038857999999993E5
1689 1689 5.1897615999999986E5
1689 1690 -2.5858757999999993E5
1690 1689 -2.6038857999999993E5
1690 1690 5.1897615999999986E5
1690 1691 -2.5858757999999993E5
1691 1690 -2.6038857999999993E5
1691 1691 5.1897615999999986E5
1691 1692 -2.5858757999999993E5
1692 1691 -2.6038857999999993E5
1692 1692 5.1897615999999986E5
1692 1693 -2.5858757999999993E5
1693 1692 -2.6038857999999993E5
1693 1693 5.1897615999999986E5
1693 1694 -2.5858757999999993E5
1694 1693 -2.6038857999999993E5
1694 1694 5.1897615999999986E5
1694 1695 -2.5858757999999993E5
1695 1694 -2.6038857999999993E5
1695 1695 5.1897615999999986E5
1695 1696 -2.5858757999999993E5
1696 1695 -2.6038857999999993E5
1696 1696 5.1897615999999986E5
1696 1697 -2.5858757999999993E5
1697 1696 -2.6038857999999993E5
1697 1697 5.1897615999999986E5
1697 1698 -2.5858757999999993E5
1698 1697 -2.6038857999999993E5
1698 1698 5.1897615999999986E5
1698 1699 -2.5858757999999993E5
1699 1698 -2.6038857999999993E5
1699 1699 5.1897615999999986E5
1699 1700 -2.5858757999999993E5
1700 1699 -2.6038857999999993E5
1700 1700 5.1897615999999986E5
1700 1701 -2.5858757999999993E5
1701 1700 -2.6038857999999993E5
1701 1701 5.1897615999999986E5
1701 1702 -2.5858757999999993E5
1702 1701 -2.6038857999999993E5
1702 1702 5.1897615999999986E5
1702 1703 -2.5858757999999993E5
1703 1702 -2.6038857999999993E5
1703 1703 5.1897615999999986E5
1703 1704 -2.5858757999999993E5
1704 1703 -2.6038857999999993E5
1704 1704 5.1897615999999986E5
1704 1705 -2.5858757999999993E5
1705 1704 -2.6038857999999993E5
1705 1705 5.1897615999999986E5
1705 1706 -2.5858757999999993E5
1706 1705 -2.6038857999999993E5
1706 1706 5.1897615999999986E5
1706 1707 -2.5858757999999993E5
1707 1706 -2.6038857999999993E5
1707 1707 5.1897615999999986E5
1707 1708 -2.5858757999999993E5
1708 1707 -2.6038857999999993E5
1708 1708 5.1897615999999986E5
1708 1709 -2.5858757999999993E5
1709 1708 -2.6038857999999993E5
1709 1709 5.1897615999999986E5
1709 1710 -2.5858757999999993E5
1710 1709 -2.6038857999999993E5
1710 1710 5.1897615999999986E5
1710 1711 -2.5858757999999993E5
1711 1710 -2.6038857999999993E5
1711 1711 5.1897615999999986E5
1711 1712 -2.5858757999999993E5
1712 1711 -2.6038857999999993E5
1712 1712 5.1897615999999986E5
1712 1713 -2.5858757999999993E5
1713 1712 -2.6038857999999993E5
1713 1713 5.1897615999999986E5
1713 1714 -2.5858757999999993E5
1714 1713 -2.6038857999999993E5
1714 1714 5.1897615999999986E5
1714 1715 -2.5858757999999993E5
1715 1714 -2.6038857999999993E5
1715 1715 5.1897615999999986E5
1715 1716 -2.5858757999999993E5
1716 1715 -2.6038857999999993E5
1716 1716 5.1897615999999986E5
1716 1717 -2.5858757999999993E5
1717 1716 -2.6038857999999993E5
1717 1717 5.1897615999999986E5
1717 1718 -2.5858757999999993E5
1718 1717 -2.6038857999999993E5
1718 1718 5.1897615999999986E5
1718 1719 -2.5858757999999993E5
1719 1718 -2.6038857999999993E5
1719 1719 5.1897615999999986E5
1719 1720 -2.5858757999999993E5
1720 1719 -2.6038857999999993E5
1720 1720 5.1897615999999986E5
1720 1721 -2.5858757999999993E5
1721 1720 -2.6038857999999993E5
1721 1721 5.1897615999999986E5
1721 1722 -2.5858757999999993E5
1722 1721 -2.6038857999999993E5
1722 1722 5.1897615999999986E5
1722 1723 -2.5858757999999993E5
1723 1722 -2.6038857999999993E5
1723 1723 5.1897615999999986E5
1723 1724 -2.5858757999999993E5
1724 1723 -2.6038857999999993E5
1724 1724 5.1897615999999986E5
1724 1725 -2.5858757999999993E5
1725 1724 -2.6038857999999993E5
1725 1725 5.1897615999999986E5
1725 1726 -2.5858757999999993E5
1726 1725 -2.6038857999999993E5
1726 1726 5.1897615999999986E5
1726 1727 -2.5858757999999993E5
1727 1726 -2.6038857999999993E5
1727 1727 5.1897615999999986E5
1727 1728 -2.5858757999999993E5
1728 1727 -2.6038857999999993E5
1728 1728 5.1897615999999986E5
1728 1729 -2.5858757999999993E5
1729 1728 -2.6038857999999993E5
1729 1729 5.1897615999999986E5
1729 1730 -2.5858757999999993E5
1730 1729 -2.6038857999999993E5
1730 1730 5.1897615999999986E5
1730 1731 -2.5858757999999993E5
1731 1730 -2.6038857999999993E5
1731 1731 5.1897615999999986E5
1731 1732 -2.5858757999999993E5
1732 1731 -2.6038857999999993E5
1732 1732 5.1897615999999986E5
1732 1733 -2.5858757999999993E5
1733 1732 -2.6038857999999993E5
1733 1733 5.1897615999999986E5
1733 1734 -2.5858757999999993E5
1734 1733 -2.6038857999999993E5
1734 1734 5.1897615999999986E5
1734 1735 -2.5858757999999993E5
1735 1734 -2.6038857999999993E5
1735 1735 5.1897615999999986E5
1735 1736 -2.5858757999999993E5
1736 1735 -2.6038857999999993E5
1736 1736 5.1897615999999986E5
1736 1737 -2.5858757999999993E5
1737 1736 -2.6038857999999993E5
1737 1737 5.1897615999999986E5
1737 1738 -2.5858757999999993E5
1738 1737 -2.6038857999999993E5
1738 1738 5.1897615999999986E5
1738 1739 -2.5858757999999993E5
1739 1738 -2.6038857999999993E5
1739 1739 5.1897615999999986E5
1739 1740 -2.5858757999999993E5
1740 1739 -2.6038857999999993E5
1740 1740 5.1897615999999986E5
1740 1741 -2.5858757999999993E5
1741 1740 -2.6038857999999993E5
1741 1741 5.1897615999999986E5
1741 1742 -2.5858757999999993E5
1742 1741 -2.6038857999999993E5
1742 1742 5.1897615999999986E5
1742 1743 -2.5858757999999993E5
1743 1742 -2.6038857999999993E5
1743 1743 5.1897615999999986E5
1743 1744 -2.5858757999999993E5
1744 1743 -2.6038857999999993E5
1744 1744 5.1897615999999986E5
1744 1745 -2.5858757999999993E5
1745 1744 -2.6038857999999993E5
1745 1745 5.1897615999999986E5
1745 1746 -2.5858757999999993E5
1746 1745 -2.6038857999999993E5
1746 1746 5.1897615999999986E5
1746 1747 -2.5858757999999993E5
1747 1746 -2.6038857999999993E5
1747 1747 5.1897615999999986E5
1747 1748 -2.5858757999999993E5
1748 1747 -2.6038857999999993E5
1748 1748 5.1897615999999986E5
1748 1749 -2.5858757999999993E5
1749 1748 -2.6038857999999993E5
1749 1749 5.1897615999999986E5
1749 1750 -2.5858757999999993E5
1750 1749 -2.6038857999999993E5
1750 1750 5.1897615999999986E5
1750 1751 -2.5858757999999993E5
1751 1750 -2.6038857999999993E5
1751 1751 5.1897615999999986E5
1751 1752 -2.5858757999999993E5
1752 1751 -2.6038857999999993E5
1752 1752 5.1897615999999986E5
1752 1753 -2.5858757999999993E5
1753 1752 -2.6038857999999993E5
1753 1753 5.1897615999999986E5
1753 1754 -2.5858757999999993E5
1754 1753 -2.6038857999999993E5
1754 1754 5.1897615999999986E5
1754 1755 -2.5858757999999993E5
1755 1754 -2.6038857999999993E5
1755 1755 5.1897615999999986E5
1755 1756 -2.5858757999999993E5
1756 1755 -2.6038857999999993E5
1756 1756 5.1897615999999986E5
1756 1757 -2.5858757999999993E5
1757 1756 -2.6038857999999993E5
1757 1757 5.1897615999999986E5
1757 1758 -2.5858757999999993E5
1758 1757 -2.6038857999999993E5
1758 1758 5.1897615999999986E5
1758 1759 -2.5858757999999993E5
1759 1758 -2.6038857999999993E5
1759 1759 5.1897615999999986E5
1759 1760 -2.5858757999999993E5
1760 1759 -2.6038857999999993E5
1760 1760 5.1897615999999986E5
1760 1761 -2.5858757999999993E5
1761 1760 -2.6038857999999993E5
1761 1761 5.1897615999999986E5
1761 1762 -2.5858757999999993E5
1762 1761 -2.6038857999999993E5
1762 1762 5.1897615999999986E5
1762 1763 -2.5858757999999993E5
1763 1762 -2.6038857999999993E5
1763 1763 5.1897615999999986E5
1763 1764 -2.5858757999999993E5
1764 1763 -2.6038857999999993E5
1764 1764 5.1897615999999986E5
1764 1765 -2.5858757999999993E5
1765 1764 -2.6038857999999993E5
1765 1765 5.1897615999999986E5
1765 1766 -2.5858757999999993E5
1766 1765 -2.6038857999999993E5
1766 1766 5.1897615999999986E5
1766 1767 -2.5858757999999993E5
1767 1766 -2.6038857999999993E5
1767 1767 5.1897615999999986E5
1767 1768 -2.5858757999999993E5
1768 1767 -2.6038857999999993E5
1768 1768 5.1897615999999986E5
1768 1769 -2.5858757999999993E5
1769 1768 -2.6038857999999993E5
1769 1769 5.1897615999999986E5
1769 1770 -2.5858757999999993E5
1770 1769 -2.6038857999999993E5
1770 1770 5.1897615999999986E5
1770 1771 -2.5858757999999993E5
1771 1770 -2.6038857999999993E5
1771 1771 5.1897615999999986E5
1771 1772 -2.5858757999999993E5
1772 1771 -2.6038857999999993E5
1772 1772 5.1897615999999986E5
1772 1773 -2.5858757999999993E5
1773 1772 -2.6038857999999993E5
1773 1773 5.1897615999999986E5
1773 1774 -2.5858757999999993E5
1774 1773 -2.6038857999999993E5
1774 1774 5.1897615999999986E5
1774 1775 -2.5858757999999993E5
1775 1774 -2.6038857999999993E5
1775 1775 5.1897615999999986E5
1775 1776 -2.5858757999999993E5
1776 1775 -2.6038857999999993E5
1776 1776 5.1897615999999986E5
1776 1777 -2.5858757999999993E5
1777 1776 -2.6038857999999993E5
1777 1777 5.1897615999999986E5
1777 1778 -2.5858757999999993E5
1778 1777 -2.6038857999999993E5
1778 1778 5.1897615999999986E5
1778 1779 -2.5858757999999993E5
1779 1778 -2.6038857999999993E5
1779 1779 5.1897615999999986E5
1779 1780 -2.5858757999999993E5
1780 1779 -2.6038857999999993E5
1780 1780 5.1897615999999986E5
1780 1781 -2.5858757999999993E5
1781 1780 -2.6038857999999993E5
1781 1781 5.1897615999999986E5
1781 1782 -2.5858757999999993E5
1782 1781 -2.6038857999999993E5
1782 1782 5.1897615999999986E5
1782 1783 -2.5858757999999993E5
1783 1782 -2.6038857999999993E5
1783 1783 5.1897615999999986E5
1783 1784 -2.5858757999999993E5
1784 1783 -2.6038857999999993E5
1784 1784 5.1897615999999986E5
1784 1785 -2.5858757999999993E5
1785 1784 -2.6038857999999993E5
1785 1785 5.1897615999999986E5
1785 1786 -2.5858757999999993E5
1786 1785 -2.6038857999999993E5
1786 1786 5.1897615999999986E5
1786 1787 -2.5858757999999993E5
1787 1786 -2.6038857999999993E5
1787 1787 5.1897615999999986E5
1787 1788 -2.5858757999999993E5
1788 1787 -2.6038857999999993E5
1788 1788 5.1897615999999986E5
1788 1789 -2.5858757999999993E5
1789 1788 -2.6038857999999993E5
1789 1789 5.1897615999999986E5
1789 1790 -2.5858757999999993E5
1790 1789 -2.6038857999999993E5
1790 1790 5.1897615999999986E5
1790 1791 -2.5858757999999993E5
1791 1790 -2.6038857999999993E5
1791 1791 5.1897615999999986E5
1791 1792 -2.5858757999999993E5
1792 1791 -2.6038857999999993E5
1792 1792 5.1897615999999986E5
1792 1793 -2.5858757999999993E5
1793 1792 -2.6038857999999993E5
1793 1793 5.1897615999999986E5
1793 1794 -2.5858757999999993E5
1794 1793 -2.6038857999999993E5
1794 1794 5.1897615999999986E5
1794 1795 -2.5858757999999993E5
1795 1794 -2.6038857999999993E5
1795 1795 5.1897615999999986E5
1795 1796 -2.5858757999999993E5
1796 1795 -2.6038857999999993E5
1796 1796 5.1897615999999986E5
1796 1797 -2.5858757999999993E5
1797 1796 -2.6038857999999993E5
1797 1797 5.1897615999999986E5
1797 1798 -2.5858757999999993E5
1798 1797 -2.6038857999999993E5
1798 1798 5.1897615999999986E5
1798 1799 -2.5858757999999993E5
1799 1798 -2.6038857999999993E5
1799 1799 5.1897615999999986E5
1799 1800 -2.5858757999999993E5
1800 1799 -2.6038857999999993E5
1800 1800 5.1897615999999986E5
