%%MatrixMarket matrix coordinate real general
% 1D convection-diffusion (-eps*u'' + beta*u' = f), central FD, n=700, eps=0.05, beta=1.0, kappa~=17889
700 700 2098
1 1 4.91401E4
1 2 -2.421955E4
2 1 -2.492055E4
2 2 4.91401E4
2 3 -2.421955E4
3 2 -2.492055E4
3 3 4.91401E4
3 4 -2.421955E4
4 3 -2.492055E4
4 4 4.91401E4
4 5 -2.421955E4
5 4 -2.492055E4
5 5 4.91401E4
5 6 -2.421955E4
6 5 -2.492055E4
6 6 4.91401E4
6 7 -2.421955E4
7 6 -2.492055E4
7 7 4.91401E4
7 8 -2.421955E4
8 7 -2.492055E4
8 8 4.91401E4
8 9 -2.421955E4
9 8 -2.492055E4
9 9 4.91401E4
9 10 -2.421955E4
10 9 -2.492055E4
10 10 4.91401E4
10 11 -2.421955E4
11 10 -2.492055E4
11 11 4.91401E4
11 12 -2.421955E4
12 11 -2.492055E4
12 12 4.91401E4
12 13 -2.421955E4
13 12 -2.492055E4
13 13 4.91401E4
13 14 -2.421955E4
14 13 -2.492055E4
14 14 4.91401E4
14 15 -2.421955E4
15 14 -2.492055E4
15 15 4.91401E4
15 16 -2.421955E4
16 15 -2.492055E4
16 16 4.91401E4
16 17 -2.421955E4
17 16 -2.492055E4
17 17 4.91401E4
17 18 -2.421955E4
18 17 -2.492055E4
18 18 4.91401E4
18 19 -2.421955E4
19 18 -2.492055E4
19 19 4.91401E4
19 20 -2.421955E4
20 19 -2.492055E4
20 20 4.91401E4
20 21 -2.421955E4
21 20 -2.492055E4
21 21 4.91401E4
21 22 -2.421955E4
22 21 -2.492055E4
22 22 4.91401E4
22 23 -2.421955E4
23 22 -2.492055E4
23 23 4.91401E4
23 24 -2.421955E4
24 23 -2.492055E4
24 24 4.91401E4
24 25 -2.421955E4
25 24 -2.492055E4
25 25 4.91401E4
25 26 -2.421955E4
26 25 -2.492055E4
26 26 4.91401E4
26 27 -2.421955E4
27 26 -2.492055E4
27 27 4.91401E4
27 28 -2.421955E4
28 27 -2.492055E4
28 28 4.91401E4
28 29 -2.421955E4
29 28 -2.492055E4
29 29 4.91401E4
29 30 -2.421955E4
30 29 -2.492055E4
30 30 4.91401E4
30 31 -2.421955E4
31 30 -2.492055E4
31 31 4.91401E4
31 32 -2.421955E4
32 31 -2.492055E4
32 32 4.91401E4
32 33 -2.421955E4
33 32 -2.492055E4
33 33 4.91401E4
33 34 -2.421955E4
34 33 -2.492055E4
34 34 4.91401E4
34 35 -2.421955E4
35 34 -2.492055E4
35 35 4.91401E4
35 36 -2.421955E4
36 35 -2.492055E4
36 36 4.91401E4
36 37 -2.421955E4
37 36 -2.492055E4
37 37 4.91401E4
37 38 -2.421955E4
38 37 -2.492055E4
38 38 4.91401E4
38 39 -2.421955E4
39 38 -2.492055E4
39 39 4.91401E4
39 40 -2.421955E4
40 39 -2.492055E4
40 40 4.91401E4
40 41 -2.421955E4
41 40 -2.492055E4
41 41 4.91401E4
41 42 -2.421955E4
42 41 -2.492055E4
42 42 4.91401E4
42 43 -2.421955E4
43 42 -2.492055E4
43 43 4.91401E4
43 44 -2.421955E4
44 43 -2.492055E4
44 44 4.91401E4
44 45 -2.421955E4
45 44 -2.492055E4
45 45 4.91401E4
45 46 -2.421955E4
46 45 -2.492055E4
46 46 4.91401E4
46 47 -2.421955E4
47 46 -2.492055E4
47 47 4.91401E4
47 48 -2.421955E4
48 47 -2.492055E4
48 48 4.91401E4
48 49 -2.421955E4
49 48 -2.492055E4
49 49 4.91401E4
49 50 -2.421955E4
50 49 -2.492055E4
50 50 4.91401E4
50 51 -2.421955E4
51 50 -2.492055E4
51 51 4.91401E4
51 52 -2.421955E4
52 51 -2.492055E4
52 52 4.91401E4
52 53 -2.421955E4
53 52 -2.492055E4
53 53 4.91401E4
53 54 -2.421955E4
54 53 -2.492055E4
54 54 4.91401E4
54 55 -2.421955E4
55 54 -2.492055E4
55 55 4.91401E4
55 56 -2.421955E4
56 55 -2.492055E4
56 56 4.91401E4
56 57 -2.421955E4
57 56 -2.492055E4
57 57 4.91401E4
57 58 -2.421955E4
58 57 -2.492055E4
58 58 4.91401E4
58 59 -2.421955E4
59 58 -2.492055E4
59 59 4.91401E4
59 60 -2.421955E4
60 59 -2.492055E4
60 60 4.91401E4
60 61 -2.421955E4
61 60 -2.492055E4
61 61 4.91401E4
61 62 -2.421955E4
62 61 -2.492055E4
62 62 4.91401E4
62 63 -2.421955E4
63 62 -2.492055E4
63 63 4.91401E4
63 64 -2.421955E4
64 63 -2.492055E4
64 64 4.91401E4
64 65 -2.421955E4
65 64 -2.492055E4
65 65 4.91401E4
65 66 -2.421955E4
66 65 -2.492055E4
66 66 4.91401E4
66 67 -2.421955E4
67 66 -2.492055E4
67 67 4.91401E4
67 68 -2.421955E4
68 67 -2.492055E4
68 68 4.91401E4
68 69 -2.421955E4
69 68 -2.492055E4
69 69 4.91401E4
69 70 -2.421955E4
70 69 -2.492055E4
70 70 4.91401E4
70 71 -2.421955E4
71 70 -2.492055E4
71 71 4.91401E4
71 72 -2.421955E4
72 71 -2.492055E4
72 72 4.91401E4
72 73 -2.421955E4
73 72 -2.492055E4
73 73 4.91401E4
73 74 -2.421955E4
74 73 -2.492055E4
74 74 4.91401E4
74 75 -2.421955E4
75 74 -2.492055E4
75 75 4.91401E4
75 76 -2.421955E4
76 75 -2.492055E4
76 76 4.91401E4
76 77 -2.421955E4
77 76 -2.492055E4
77 77 4.91401E4
77 78 -2.421955E4
78 77 -2.492055E4
78 78 4.91401E4
78 79 -2.421955E4
79 78 -2.492055E4
79 79 4.91401E4
79 80 -2.421955E4
80 79 -2.492055E4
80 80 4.91401E4
80 81 -2.421955E4
81 80 -2.492055E4
81 81 4.91401E4
81 82 -2.421955E4
82 81 -2.492055E4
82 82 4.91401E4
82 83 -2.421955E4
83 82 -2.492055E4
83 83 4.91401E4
83 84 -2.421955E4
84 83 -2.492055E4
84 84 4.91401E4
84 85 -2.421955E4
85 84 -2.492055E4
85 85 4.91401E4
85 86 -2.421955E4
86 85 -2.492055E4
86 86 4.91401E4
86 87 -2.421955E4
87 86 -2.492055E4
87 87 4.91401E4
87 88 -2.421955E4
88 87 -2.492055E4
88 88 4.91401E4
88 89 -2.421955E4
89 88 -2.492055E4
89 89 4.91401E4
89 90 -2.421955E4
90 89 -2.492055E4
90 90 4.91401E4
90 91 -2.421955E4
91 90 -2.492055E4
91 91 4.91401E4
91 92 -2.421955E4
92 91 -2.492055E4
92 92 4.91401E4
92 93 -2.421955E4
93 92 -2.492055E4
93 93 4.91401E4
93 94 -2.421955E4
94 93 -2.492055E4
94 94 4.91401E4
94 95 -2.421955E4
95 94 -2.492055E4
95 95 4.91401E4
95 96 -2.421955E4
96 95 -2.492055E4
96 96 4.91401E4
96 97 -2.421955E4
97 96 -2.492055E4
97 97 4.91401E4
97 98 -2.421955E4
98 97 -2.492055E4
98 98 4.91401E4
98 99 -2.421955E4
99 98 -2.492055E4
99 99 4.91401E4
99 100 -2.421955E4
100 99 -2.492055E4
100 100 4.91401E4
100 101 -2.421955E4
101 100 -2.492055E4
101 101 4.91401E4
101 102 -2.421955E4
102 101 -2.492055E4
102 102 4.91401E4
102 103 -2.421955E4
103 102 -2.492055E4
103 103 4.91401E4
103 104 -2.421955E4
104 103 -2.492055E4
104 104 4.91401E4
104 105 -2.421955E4
105 104 -2.492055E4
105 105 4.91401E4
105 106 -2.421955E4
106 105 -2.492055E4
106 106 4.91401E4
106 107 -2.421955E4
107 106 -2.492055E4
107 107 4.91401E4
107 108 -2.421955E4
108 107 -2.492055E4
108 108 4.91401E4
108 109 -2.421955E4
109 108 -2.492055E4
109 109 4.91401E4
109 110 -2.421955E4
110 109 -2.492055E4
110 110 4.91401E4
110 111 -2.421955E4
111 110 -2.492055E4
111 111 4.91401E4
111 112 -2.421955E4
112 111 -2.492055E4
112 112 4.91401E4
112 113 -2.421955E4
113 112 -2.492055E4
113 113 4.91401E4
113 114 -2.421955E4
114 113 -2.492055E4
114 114 4.91401E4
114 115 -2.421955E4
115 114 -2.492055E4
115 115 4.91401E4
115 116 -2.421955E4
116 115 -2.492055E4
116 116 4.91401E4
116 117 -2.421955E4
117 116 -2.492055E4
117 117 4.91401E4
117 118 -2.421955E4
118 117 -2.492055E4
118 118 4.91401E4
118 119 -2.421955E4
119 118 -2.492055E4
119 119 4.91401E4
119 120 -2.421955E4
120 119 -2.492055E4
120 120 4.91401E4
120 121 -2.421955E4
121 120 -2.492055E4
121 121 4.91401E4
121 122 -2.421955E4
122 121 -2.492055E4
122 122 4.91401E4
122 123 -2.421955E4
123 122 -2.492055E4
123 123 4.91401E4
123 124 -2.421955E4
124 123 -2.492055E4
124 124 4.91401E4
124 125 -2.421955E4
125 124 -2.492055E4
125 125 4.91401E4
125 126 -2.421955E4
126 125 -2.492055E4
126 126 4.91401E4
126 127 -2.421955E4
127 126 -2.492055E4
127 127 4.91401E4
127 128 -2.421955E4
128 127 -2.492055E4
128 128 4.91401E4
128 129 -2.421955E4
129 128 -2.492055E4
129 129 4.91401E4
129 130 -2.421955E4
130 129 -2.492055E4
130 130 4.91401E4
130 131 -2.421955E4
131 130 -2.492055E4
131 131 4.91401E4
131 132 -2.421955E4
132 131 -2.492055E4
132 132 4.91401E4
132 133 -2.421955E4
133 132 -2.492055E4
133 133 4.91401E4
133 134 -2.421955E4
134 133 -2.492055E4
134 134 4.91401E4
134 135 -2.421955E4
135 134 -2.492055E4
135 135 4.91401E4
135 136 -2.421955E4
136 135 -2.492055E4
136 136 4.91401E4
136 137 -2.421955E4
137 136 -2.492055E4
137 137 4.91401E4
137 138 -2.421955E4
138 137 -2.492055E4
138 138 4.91401E4
138 139 -2.421955E4
139 138 -2.492055E4
139 139 4.91401E4
139 140 -2.421955E4
140 139 -2.492055E4
140 140 4.91401E4
140 141 -2.421955E4
141 140 -2.492055E4
141 141 4.91401E4
141 142 -2.421955E4
142 141 -2.492055E4
142 142 4.91401E4
142 143 -2.421955E4
143 142 -2.492055E4
143 143 4.91401E4
143 144 -2.421955E4
144 143 -2.492055E4
144 144 4.91401E4
144 145 -2.421955E4
145 144 -2.492055E4
145 145 4.91401E4
145 146 -2.421955E4
146 145 -2.492055E4
146 146 4.91401E4
146 147 -2.421955E4
147 146 -2.492055E4
147 147 4.91401E4
147 148 -2.421955E4
148 147 -2.492055E4
148 148 4.91401E4
148 149 -2.421955E4
149 148 -2.492055E4
149 149 4.91401E4
149 150 -2.421955E4
150 149 -2.492055E4
150 150 4.91401E4
150 151 -2.421955E4
151 150 -2.492055E4
151 151 4.91401E4
151 152 -2.421955E4
152 151 -2.492055E4
152 152 4.91401E4
152 153 -2.421955E4
153 152 -2.492055E4
153 153 4.91401E4
153 154 -2.421955E4
154 153 -2.492055E4
154 154 4.91401E4
154 155 -2.421955E4
155 154 -2.492055E4
155 155 4.91401E4
155 156 -2.421955E4
156 155 -2.492055E4
156 156 4.91401E4
156 157 -2.421955E4
157 156 -2.492055E4
157 157 4.91401E4
157 158 -2.421955E4
158 157 -2.492055E4
158 158 4.91401E4
158 159 -2.421955E4
159 158 -2.492055E4
159 159 4.91401E4
159 160 -2.421955E4
160 159 -2.492055E4
160 160 4.91401E4
160 161 -2.421955E4
161 160 -2.492055E4
161 161 4.91401E4
161 162 -2.421955E4
162 161 -2.492055E4
162 162 4.91401E4
162 163 -2.421955E4
163 162 -2.492055E4
163 163 4.91401E4
163 164 -2.421955E4
164 163 -2.492055E4
164 164 4.91401E4
164 165 -2.421955E4
165 164 -2.492055E4
165 165 4.91401E4
165 166 -2.421955E4
166 165 -2.492055E4
166 166 4.91401E4
166 167 -2.421955E4
167 166 -2.492055E4
167 167 4.91401E4
167 168 -2.421955E4
168 167 -2.492055E4
168 168 4.91401E4
168 169 -2.421955E4
169 168 -2.492055E4
169 169 4.91401E4
169 170 -2.421955E4
170 169 -2.492055E4
170 170 4.91401E4
170 171 -2.421955E4
171 170 -2.492055E4
171 171 4.91401E4
171 172 -2.421955E4
172 171 -2.492055E4
172 172 4.91401E4
172 173 -2.421955E4
173 172 -2.492055E4
173 173 4.91401E4
173 174 -2.421955E4
174 173 -2.492055E4
174 174 4.91401E4
174 175 -2.421955E4
175 174 -2.492055E4
175 175 4.91401E4
175 176 -2.421955E4
176 175 -2.492055E4
176 176 4.91401E4
176 177 -2.421955E4
177 176 -2.492055E4
177 177 4.91401E4
177 178 -2.421955E4
178 177 -2.492055E4
178 178 4.91401E4
178 179 -2.421955E4
179 178 -2.492055E4
179 179 4.91401E4
179 180 -2.421955E4
180 179 -2.492055E4
180 180 4.91401E4
180 181 -2.421955E4
181 180 -2.492055E4
181 181 4.91401E4
181 182 -2.421955E4
182 181 -2.492055E4
182 182 4.91401E4
182 183 -2.421955E4
183 182 -2.492055E4
183 183 4.91401E4
183 184 -2.421955E4
184 183 -2.492055E4
184 184 4.91401E4
184 185 -2.421955E4
185 184 -2.492055E4
185 185 4.91401E4
185 186 -2.421955E4
186 185 -2.492055E4
186 186 4.91401E4
186 187 -2.421955E4
187 186 -2.492055E4
187 187 4.91401E4
187 188 -2.421955E4
188 187 -2.492055E4
188 188 4.91401E4
188 189 -2.421955E4
189 188 -2.492055E4
189 189 4.91401E4
189 190 -2.421955E4
190 189 -2.492055E4
190 190 4.91401E4
190 191 -2.421955E4
191 190 -2.492055E4
191 191 4.91401E4
191 192 -2.421955E4
192 191 -2.492055E4
192 192 4.91401E4
192 193 -2.421955E4
193 192 -2.492055E4
193 193 4.91401E4
193 194 -2.421955E4
194 193 -2.492055E4
194 194 4.91401E4
194 195 -2.421955E4
195 194 -2.492055E4
195 195 4.91401E4
195 196 -2.421955E4
196 195 -2.492055E4
196 196 4.91401E4
196 197 -2.421955E4
197 196 -2.492055E4
197 197 4.91401E4
197 198 -2.421955E4
198 197 -2.492055E4
198 198 4.91401E4
198 199 -2.421955E4
199 198 -2.492055E4
199 199 4.91401E4
199 200 -2.421955E4
200 199 -2.492055E4
200 200 4.91401E4
200 201 -2.421955E4
201 200 -2.492055E4
201 201 4.91401E4
201 202 -2.421955E4
202 201 -2.492055E4
202 202 4.91401E4
202 203 -2.421955E4
203 202 -2.492055E4
203 203 4.91401E4
203 204 -2.421955E4
204 203 -2.492055E4
204 204 4.91401E4
204 205 -2.421955E4
205 204 -2.492055E4
205 205 4.91401E4
205 206 -2.421955E4
206 205 -2.492055E4
206 206 4.91401E4
206 207 -2.421955E4
207 206 -2.492055E4
207 207 4.91401E4
207 208 -2.421955E4
208 207 -2.492055E4
208 208 4.91401E4
208 209 -2.421955E4
209 208 -2.492055E4
209 209 4.91401E4
209 210 -2.421955E4
210 209 -2.492055E4
210 210 4.91401E4
210 211 -2.421955E4
211 210 -2.492055E4
211 211 4.91401E4
211 212 -2.421955E4
212 211 -2.492055E4
212 212 4.91401E4
212 213 -2.421955E4
213 212 -2.492055E4
213 213 4.91401E4
213 214 -2.421955E4
214 213 -2.492055E4
214 214 4.91401E4
214 215 -2.421955E4
215 214 -2.492055E4
215 215 4.91401E4
215 216 -2.421955E4
216 215 -2.492055E4
216 216 4.91401E4
216 217 -2.421955E4
217 216 -2.492055E4
217 217 4.91401E4
217 218 -2.421955E4
218 217 -2.492055E4
218 218 4.91401E4
218 219 -2.421955E4
219 218 -2.492055E4
219 219 4.91401E4
219 220 -2.421955E4
220 219 -2.492055E4
220 220 4.91401E4
220 221 -2.421955E4
221 220 -2.492055E4
221 221 4.91401E4
221 222 -2.421955E4
222 221 -2.492055E4
222 222 4.91401E4
222 223 -2.421955E4
223 222 -2.492055E4
223 223 4.91401E4
223 224 -2.421955E4
224 223 -2.492055E4
224 224 4.91401E4
224 225 -2.421955E4
225 224 -2.492055E4
225 225 4.91401E4
225 226 -2.421955E4
226 225 -2.492055E4
226 226 4.91401E4
226 227 -2.421955E4
227 226 -2.492055E4
227 227 4.91401E4
227 228 -2.421955E4
228 227 -2.492055E4
228 228 4.91401E4
228 229 -2.421955E4
229 228 -2.492055E4
229 229 4.91401E4
229 230 -2.421955E4
230 229 -2.492055E4
230 230 4.91401E4
230 231 -2.421955E4
231 230 -2.492055E4
231 231 4.91401E4
231 232 -2.421955E4
232 231 -2.492055E4
232 232 4.91401E4
232 233 -2.421955E4
233 232 -2.492055E4
233 233 4.91401E4
233 234 -2.421955E4
234 233 -2.492055E4
234 234 4.91401E4
234 235 -2.421955E4
235 234 -2.492055E4
235 235 4.91401E4
235 236 -2.421955E4
236 235 -2.492055E4
236 236 4.91401E4
236 237 -2.421955E4
237 236 -2.492055E4
237 237 4.91401E4
237 238 -2.421955E4
238 237 -2.492055E4
238 238 4.91401E4
238 239 -2.421955E4
239 238 -2.492055E4
239 239 4.91401E4
239 240 -2.421955E4
240 239 -2.492055E4
240 240 4.91401E4
240 241 -2.421955E4
241 240 -2.492055E4
241 241 4.91401E4
241 242 -2.421955E4
242 241 -2.492055E4
242 242 4.91401E4
242 243 -2.421955E4
243 242 -2.492055E4
243 243 4.91401E4
243 244 -2.421955E4
244 243 -2.492055E4
244 244 4.91401E4
244 245 -2.421955E4
245 244 -2.492055E4
245 245 4.91401E4
245 246 -2.421955E4
246 245 -2.492055E4
246 246 4.91401E4
246 247 -2.421955E4
247 246 -2.492055E4
247 247 4.91401E4
247 248 -2.421955E4
248 247 -2.492055E4
248 248 4.91401E4
248 249 -2.421955E4
249 248 -2.492055E4
249 249 4.91401E4
249 250 -2.421955E4
250 249 -2.492055E4
250 250 4.91401E4
250 251 -2.421955E4
251 250 -2.492055E4
251 251 4.91401E4
251 252 -2.421955E4
252 251 -2.492055E4
252 252 4.91401E4
252 253 -2.421955E4
253 252 -2.492055E4
253 253 4.91401E4
253 254 -2.421955E4
254 253 -2.492055E4
254 254 4.91401E4
254 255 -2.421955E4
255 254 -2.492055E4
255 255 4.91401E4
255 256 -2.421955E4
256 255 -2.492055E4
256 256 4.91401E4
256 257 -2.421955E4
257 256 -2.492055E4
257 257 4.91401E4
257 258 -2.421955E4
258 257 -2.492055E4
258 258 4.91401E4
258 259 -2.421955E4
259 258 -2.492055E4
259 259 4.91401E4
259 260 -2.421955E4
260 259 -2.492055E4
260 260 4.91401E4
260 261 -2.421955E4
261 260 -2.492055E4
261 261 4.91401E4
261 262 -2.421955E4
262 261 -2.492055E4
262 262 4.91401E4
262 263 -2.421955E4
263 262 -2.492055E4
263 263 4.91401E4
263 264 -2.421955E4
264 263 -2.492055E4
264 264 4.91401E4
264 265 -2.421955E4
265 264 -2.492055E4
265 265 4.91401E4
265 266 -2.421955E4
266 265 -2.492055E4
266 266 4.91401E4
266 267 -2.421955E4
267 266 -2.492055E4
267 267 4.91401E4
267 268 -2.421955E4
268 267 -2.492055E4
268 268 4.91401E4
268 269 -2.421955E4
269 268 -2.492055E4
269 269 4.91401E4
269 270 -2.421955E4
270 269 -2.492055E4
270 270 4.91401E4
270 271 -2.421955E4
271 270 -2.492055E4
271 271 4.91401E4
271 272 -2.421955E4
272 271 -2.492055E4
272 272 4.91401E4
272 273 -2.421955E4
273 272 -2.492055E4
273 273 4.91401E4
273 274 -2.421955E4
274 273 -2.492055E4
274 274 4.91401E4
274 275 -2.421955E4
275 274 -2.492055E4
275 275 4.91401E4
275 276 -2.421955E4
276 275 -2.492055E4
276 276 4.91401E4
276 277 -2.421955E4
277 276 -2.492055E4
277 277 4.91401E4
277 278 -2.421955E4
278 277 -2.492055E4
278 278 4.91401E4
278 279 -2.421955E4
279 278 -2.492055E4
279 279 4.91401E4
279 280 -2.421955E4
280 279 -2.492055E4
280 280 4.91401E4
280 281 -2.421955E4
281 280 -2.492055E4
281 281 4.91401E4
281 282 -2.421955E4
282 281 -2.492055E4
282 282 4.91401E4
282 283 -2.421955E4
283 282 -2.492055E4
283 283 4.91401E4
283 284 -2.421955E4
284 283 -2.492055E4
284 284 4.91401E4
284 285 -2.421955E4
285 284 -2.492055E4
285 285 4.91401E4
285 286 -2.421955E4
286 285 -2.492055E4
286 286 4.91401E4
286 287 -2.421955E4
287 286 -2.492055E4
287 287 4.91401E4
287 288 -2.421955E4
288 287 -2.492055E4
288 288 4.91401E4
288 289 -2.421955E4
289 288 -2.492055E4
289 289 4.91401E4
289 290 -2.421955E4
290 289 -2.492055E4
290 290 4.91401E4
290 291 -2.421955E4
291 290 -2.492055E4
291 291 4.91401E4
291 292 -2.421955E4
292 291 -2.492055E4
292 292 4.91401E4
292 293 -2.421955E4
293 292 -2.492055E4
293 293 4.91401E4
293 294 -2.421955E4
294 293 -2.492055E4
294 294 4.91401E4
294 295 -2.421955E4
295 294 -2.492055E4
295 295 4.91401E4
295 296 -2.421955E4
296 295 -2.492055E4
296 296 4.91401E4
296 297 -2.421955E4
297 296 -2.492055E4
297 297 4.91401E4
297 298 -2.421955E4
298 297 -2.492055E4
298 298 4.91401E4
298 299 -2.421955E4
299 298 -2.492055E4
299 299 4.91401E4
299 300 -2.421955E4
300 299 -2.492055E4
300 300 4.91401E4
300 301 -2.421955E4
301 300 -2.492055E4
301 301 4.91401E4
301 302 -2.421955E4
302 301 -2.492055E4
302 302 4.91401E4
302 303 -2.421955E4
303 302 -2.492055E4
303 303 4.91401E4
303 304 -2.421955E4
304 303 -2.492055E4
304 304 4.91401E4
304 305 -2.421955E4
305 304 -2.492055E4
305 305 4.91401E4
305 306 -2.421955E4
306 305 -2.492055E4
306 306 4.91401E4
306 307 -2.421955E4
307 306 -2.492055E4
307 307 4.91401E4
307 308 -2.421955E4
308 307 -2.492055E4
308 308 4.91401E4
308 309 -2.421955E4
309 308 -2.492055E4
309 309 4.91401E4
309 310 -2.421955E4
310 309 -2.492055E4
310 310 4.91401E4
310 311 -2.421955E4
311 310 -2.492055E4
311 311 4.91401E4
311 312 -2.421955E4
312 311 -2.492055E4
312 312 4.91401E4
312 313 -2.421955E4
313 312 -2.492055E4
313 313 4.91401E4
313 314 -2.421955E4
314 313 -2.492055E4
314 314 4.91401E4
314 315 -2.421955E4
315 314 -2.492055E4
315 315 4.91401E4
315 316 -2.421955E4
316 315 -2.492055E4
316 316 4.91401E4
316 317 -2.421955E4
317 316 -2.492055E4
317 317 4.91401E4
317 318 -2.421955E4
318 317 -2.492055E4
318 318 4.91401E4
318 319 -2.421955E4
319 318 -2.492055E4
319 319 4.91401E4
319 320 -2.421955E4
320 319 -2.492055E4
320 320 4.91401E4
320 321 -2.421955E4
321 320 -2.492055E4
321 321 4.91401E4
321 322 -2.421955E4
322 321 -2.492055E4
322 322 4.91401E4
322 323 -2.421955E4
323 322 -2.492055E4
323 323 4.91401E4
323 324 -2.421955E4
324 323 -2.492055E4
324 324 4.91401E4
324 325 -2.421955E4
325 324 -2.492055E4
325 325 4.91401E4
325 326 -2.421955E4
326 325 -2.492055E4
326 326 4.91401E4
326 327 -2.421955E4
327 326 -2.492055E4
327 327 4.91401E4
327 328 -2.421955E4
328 327 -2.492055E4
328 328 4.91401E4
328 329 -2.421955E4
329 328 -2.492055E4
329 329 4.91401E4
329 330 -2.421955E4
330 329 -2.492055E4
330 330 4.91401E4
330 331 -2.421955E4
331 330 -2.492055E4
331 331 4.91401E4
331 332 -2.421955E4
332 331 -2.492055E4
332 332 4.91401E4
332 333 -2.421955E4
333 332 -2.492055E4
333 333 4.91401E4
333 334 -2.421955E4
334 333 -2.492055E4
334 334 4.91401E4
334 335 -2.421955E4
335 334 -2.492055E4
335 335 4.91401E4
335 336 -2.421955E4
336 335 -2.492055E4
336 336 4.91401E4
336 337 -2.421955E4
337 336 -2.492055E4
337 337 4.91401E4
337 338 -2.421955E4
338 337 -2.492055E4
338 338 4.91401E4
338 339 -2.421955E4
339 338 -2.492055E4
339 339 4.91401E4
339 340 -2.421955E4
340 339 -2.492055E4
340 340 4.91401E4
340 341 -2.421955E4
341 340 -2.492055E4
341 341 4.91401E4
341 342 -2.421955E4
342 341 -2.492055E4
342 342 4.91401E4
342 343 -2.421955E4
343 342 -2.492055E4
343 343 4.91401E4
343 344 -2.421955E4
344 343 -2.492055E4
344 344 4.91401E4
344 345 -2.421955E4
345 344 -2.492055E4
345 345 4.91401E4
345 346 -2.421955E4
346 345 -2.492055E4
346 346 4.91401E4
346 347 -2.421955E4
347 346 -2.492055E4
347 347 4.91401E4
347 348 -2.421955E4
348 347 -2.492055E4
348 348 4.91401E4
348 349 -2.421955E4
349 348 -2.492055E4
349 349 4.91401E4
349 350 -2.421955E4
350 349 -2.492055E4
350 350 4.91401E4
350 351 -2.421955E4
351 350 -2.492055E4
351 351 4.91401E4
351 352 -2.421955E4
352 351 -2.492055E4
352 352 4.91401E4
352 353 -2.421955E4
353 352 -2.492055E4
353 353 4.91401E4
353 354 -2.421955E4
354 353 -2.492055E4
354 354 4.91401E4
354 355 -2.421955E4
355 354 -2.492055E4
355 355 4.91401E4
355 356 -2.421955E4
356 355 -2.492055E4
356 356 4.91401E4
356 357 -2.421955E4
357 356 -2.492055E4
357 357 4.91401E4
357 358 -2.421955E4
358 357 -2.492055E4
358 358 4.91401E4
358 359 -2.421955E4
359 358 -2.492055E4
359 359 4.91401E4
359 360 -2.421955E4
360 359 -2.492055E4
360 360 4.91401E4
360 361 -2.421955E4
361 360 -2.492055E4
361 361 4.91401E4
361 362 -2.421955E4
362 361 -2.492055E4
362 362 4.91401E4
362 363 -2.421955E4
363 362 -2.492055E4
363 363 4.91401E4
363 364 -2.421955E4
364 363 -2.492055E4
364 364 4.91401E4
364 365 -2.421955E4
365 364 -2.492055E4
365 365 4.91401E4
365 366 -2.421955E4
366 365 -2.492055E4
366 366 4.91401E4
366 367 -2.421955E4
367 366 -2.492055E4
367 367 4.91401E4
367 368 -2.421955E4
368 367 -2.492055E4
368 368 4.91401E4
368 369 -2.421955E4
369 368 -2.492055E4
369 369 4.91401E4
369 370 -2.421955E4
370 369 -2.492055E4
370 370 4.91401E4
370 371 -2.421955E4
371 370 -2.492055E4
371 371 4.91401E4
371 372 -2.421955E4
372 371 -2.492055E4
372 372 4.91401E4
372 373 -2.421955E4
373 372 -2.492055E4
373 373 4.91401E4
373 374 -2.421955E4
374 373 -2.492055E4
374 374 4.91401E4
374 375 -2.421955E4
375 374 -2.492055E4
375 375 4.91401E4
375 376 -2.421955E4
376 375 -2.492055E4
376 376 4.91401E4
376 377 -2.421955E4
377 376 -2.492055E4
377 377 4.91401E4
377 378 -2.421955E4
378 377 -2.492055E4
378 378 4.91401E4
378 379 -2.421955E4
379 378 -2.492055E4
379 379 4.91401E4
379 380 -2.421955E4
380 379 -2.492055E4
380 380 4.91401E4
380 381 -2.421955E4
381 380 -2.492055E4
381 381 4.91401E4
381 382 -2.421955E4
382 381 -2.492055E4
382 382 4.91401E4
382 383 -2.421955E4
383 382 -2.492055E4
383 383 4.91401E4
383 384 -2.421955E4
384 383 -2.492055E4
384 384 4.91401E4
384 385 -2.421955E4
385 384 -2.492055E4
385 385 4.91401E4
385 386 -2.421955E4
386 385 -2.492055E4
386 386 4.91401E4
386 387 -2.421955E4
387 386 -2.492055E4
387 387 4.91401E4
387 388 -2.421955E4
388 387 -2.492055E4
388 388 4.91401E4
388 389 -2.421955E4
389 388 -2.492055E4
389 389 4.91401E4
389 390 -2.421955E4
390 389 -2.492055E4
390 390 4.91401E4
390 391 -2.421955E4
391 390 -2.492055E4
391 391 4.91401E4
391 392 -2.421955E4
392 391 -2.492055E4
392 392 4.91401E4
392 393 -2.421955E4
393 392 -2.492055E4
393 393 4.91401E4
393 394 -2.421955E4
394 393 -2.492055E4
394 394 4.91401E4
394 395 -2.421955E4
395 394 -2.492055E4
395 395 4.91401E4
395 396 -2.421955E4
396 395 -2.492055E4
396 396 4.91401E4
396 397 -2.421955E4
397 396 -2.492055E4
397 397 4.91401E4
397 398 -2.421955E4
398 397 -2.492055E4
398 398 4.91401E4
398 399 -2.421955E4
399 398 -2.492055E4
399 399 4.91401E4
399 400 -2.421955E4
400 399 -2.492055E4
400 400 4.91401E4
400 401 -2.421955E4
401 400 -2.492055E4
401 401 4.91401E4
401 402 -2.421955E4
402 401 -2.492055E4
402 402 4.91401E4
402 403 -2.421955E4
403 402 -2.492055E4
403 403 4.91401E4
403 404 -2.421955E4
404 403 -2.492055E4
404 404 4.91401E4
404 405 -2.421955E4
405 404 -2.492055E4
405 405 4.91401E4
405 406 -2.421955E4
406 405 -2.492055E4
406 406 4.91401E4
406 407 -2.421955E4
407 406 -2.492055E4
407 407 4.91401E4
407 408 -2.421955E4
408 407 -2.492055E4
408 408 4.91401E4
408 409 -2.421955E4
409 408 -2.492055E4
409 409 4.91401E4
409 410 -2.421955E4
410 409 -2.492055E4
410 410 4.91401E4
410 411 -2.421955E4
411 410 -2.492055E4
411 411 4.91401E4
411 412 -2.421955E4
412 411 -2.492055E4
412 412 4.91401E4
412 413 -2.421955E4
413 412 -2.492055E4
413 413 4.91401E4
413 414 -2.421955E4
414 413 -2.492055E4
414 414 4.91401E4
414 415 -2.421955E4
415 414 -2.492055E4
415 415 4.91401E4
415 416 -2.421955E4
416 415 -2.492055E4
416 416 4.91401E4
416 417 -2.421955E4
417 416 -2.492055E4
417 417 4.91401E4
417 418 -2.421955E4
418 417 -2.492055E4
418 418 4.91401E4
418 419 -2.421955E4
419 418 -2.492055E4
419 419 4.91401E4
419 420 -2.421955E4
420 419 -2.492055E4
420 420 4.91401E4
420 421 -2.421955E4
421 420 -2.492055E4
421 421 4.91401E4
421 422 -2.421955E4
422 421 -2.492055E4
422 422 4.91401E4
422 423 -2.421955E4
423 422 -2.492055E4
423 423 4.91401E4
423 424 -2.421955E4
424 423 -2.492055E4
424 424 4.91401E4
424 425 -2.421955E4
425 424 -2.492055E4
425 425 4.91401E4
425 426 -2.421955E4
426 425 -2.492055E4
426 426 4.91401E4
426 427 -2.421955E4
427 426 -2.492055E4
427 427 4.91401E4
427 428 -2.421955E4
428 427 -2.492055E4
428 428 4.91401E4
428 429 -2.421955E4
429 428 -2.492055E4
429 429 4.91401E4
429 430 -2.421955E4
430 429 -2.492055E4
430 430 4.91401E4
430 431 -2.421955E4
431 430 -2.492055E4
431 431 4.91401E4
431 432 -2.421955E4
432 431 -2.492055E4
432 432 4.91401E4
432 433 -2.421955E4
433 432 -2.492055E4
433 433 4.91401E4
433 434 -2.421955E4
434 433 -2.492055E4
434 434 4.91401E4
434 435 -2.421955E4
435 434 -2.492055E4
435 435 4.91401E4
435 436 -2.421955E4
436 435 -2.492055E4
436 436 4.91401E4
436 437 -2.421955E4
437 436 -2.492055E4
437 437 4.91401E4
437 438 -2.421955E4
438 437 -2.492055E4
438 438 4.91401E4
438 439 -2.421955E4
439 438 -2.492055E4
439 439 4.91401E4
439 440 -2.421955E4
440 439 -2.492055E4
440 440 4.91401E4
440 441 -2.421955E4
441 440 -2.492055E4
441 441 4.91401E4
441 442 -2.421955E4
442 441 -2.492055E4
442 442 4.91401E4
442 443 -2.421955E4
443 442 -2.492055E4
443 443 4.91401E4
443 444 -2.421955E4
444 443 -2.492055E4
444 444 4.91401E4
444 445 -2.421955E4
445 444 -2.492055E4
445 445 4.91401E4
445 446 -2.421955E4
446 445 -2.492055E4
446 446 4.91401E4
446 447 -2.421955E4
447 446 -2.492055E4
447 447 4.91401E4
447 448 -2.421955E4
448 447 -2.492055E4
448 448 4.91401E4
448 449 -2.421955E4
449 448 -2.492055E4
449 449 4.91401E4
449 450 -2.421955E4
450 449 -2.492055E4
450 450 4.91401E4
450 451 -2.421955E4
451 450 -2.492055E4
451 451 4.91401E4
451 452 -2.421955E4
452 451 -2.492055E4
452 452 4.91401E4
452 453 -2.421955E4
453 452 -2.492055E4
453 453 4.91401E4
453 454 -2.421955E4
454 453 -2.492055E4
454 454 4.91401E4
454 455 -2.421955E4
455 454 -2.492055E4
455 455 4.91401E4
455 456 -2.421955E4
456 455 -2.492055E4
456 456 4.91401E4
456 457 -2.421955E4
457 456 -2.492055E4
457 457 4.91401E4
457 458 -2.421955E4
458 457 -2.492055E4
458 458 4.91401E4
458 459 -2.421955E4
459 458 -2.492055E4
459 459 4.91401E4
459 460 -2.421955E4
460 459 -2.492055E4
460 460 4.91401E4
460 461 -2.421955E4
461 460 -2.492055E4
461 461 4.91401E4
461 462 -2.421955E4
462 461 -2.492055E4
462 462 4.91401E4
462 463 -2.421955E4
463 462 -2.492055E4
463 463 4.91401E4
463 464 -2.421955E4
464 463 -2.492055E4
464 464 4.91401E4
464 465 -2.421955E4
465 464 -2.492055E4
465 465 4.91401E4
465 466 -2.421955E4
466 465 -2.492055E4
466 466 4.91401E4
466 467 -2.421955E4
467 466 -2.492055E4
467 467 4.91401E4
467 468 -2.421955E4
468 467 -2.492055E4
468 468 4.91401E4
468 469 -2.421955E4
469 468 -2.492055E4
469 469 4.91401E4
469 470 -2.421955E4
470 469 -2.492055E4
470 470 4.91401E4
470 471 -2.421955E4
471 470 -2.492055E4
471 471 4.91401E4
471 472 -2.421955E4
472 471 -2.492055E4
472 472 4.91401E4
472 473 -2.421955E4
473 472 -2.492055E4
473 473 4.91401E4
473 474 -2.421955E4
474 473 -2.492055E4
474 474 4.91401E4
474 475 -2.421955E4
475 474 -2.492055E4
475 475 4.91401E4
475 476 -2.421955E4
476 475 -2.492055E4
476 476 4.91401E4
476 477 -2.421955E4
477 476 -2.492055E4
477 477 4.91401E4
477 478 -2.421955E4
478 477 -2.492055E4
478 478 4.91401E4
478 479 -2.421955E4
479 478 -2.492055E4
479 479 4.91401E4
479 480 -2.421955E4
480 479 -2.492055E4
480 480 4.91401E4
480 481 -2.421955E4
481 480 -2.492055E4
481 481 4.91401E4
481 482 -2.421955E4
482 481 -2.492055E4
482 482 4.91401E4
482 483 -2.421955E4
483 482 -2.492055E4
483 483 4.91401E4
483 484 -2.421955E4
484 483 -2.492055E4
484 484 4.91401E4
484 485 -2.421955E4
485 484 -2.492055E4
485 485 4.91401E4
485 486 -2.421955E4
486 485 -2.492055E4
486 486 4.91401E4
486 487 -2.421955E4
487 486 -2.492055E4
487 487 4.91401E4
487 488 -2.421955E4
488 487 -2.492055E4
488 488 4.91401E4
488 489 -2.421955E4
489 488 -2.492055E4
489 489 4.91401E4
489 490 -2.421955E4
490 489 -2.492055E4
490 490 4.91401E4
490 491 -2.421955E4
491 490 -2.492055E4
491 491 4.91401E4
491 492 -2.421955E4
492 491 -2.492055E4
492 492 4.91401E4
492 493 -2.421955E4
493 492 -2.492055E4
493 493 4.91401E4
493 494 -2.421955E4
494 493 -2.492055E4
494 494 4.91401E4
494 495 -2.421955E4
495 494 -2.492055E4
495 495 4.91401E4
495 496 -2.421955E4
496 495 -2.492055E4
496 496 4.91401E4
496 497 -2.421955E4
497 496 -2.492055E4
497 497 4.91401E4
497 498 -2.421955E4
498 497 -2.492055E4
498 498 4.91401E4
498 499 -2.421955E4
499 498 -2.492055E4
499 499 4.91401E4
499 500 -2.421955E4
500 499 -2.492055E4
500 500 4.91401E4
500 501 -2.421955E4
501 500 -2.492055E4
501 501 4.91401E4
501 502 -2.421955E4
502 501 -2.492055E4
502 502 4.91401E4
502 503 -2.421955E4
503 502 -2.492055E4
503 503 4.91401E4
503 504 -2.421955E4
504 503 -2.492055E4
504 504 4.91401E4
504 505 -2.421955E4
505 504 -2.492055E4
505 505 4.91401E4
505 506 -2.421955E4
506 505 -2.492055E4
506 506 4.91401E4
506 507 -2.421955E4
507 506 -2.492055E4
507 507 4.91401E4
507 508 -2.421955E4
508 507 -2.492055E4
508 508 4.91401E4
508 509 -2.421955E4
509 508 -2.492055E4
509 509 4.91401E4
509 510 -2.421955E4
510 509 -2.492055E4
510 510 4.91401E4
510 511 -2.421955E4
511 510 -2.492055E4
511 511 4.91401E4
511 512 -2.421955E4
512 511 -2.492055E4
512 512 4.91401E4
512 513 -2.421955E4
513 512 -2.492055E4
513 513 4.91401E4
513 514 -2.421955E4
514 513 -2.492055E4
514 514 4.91401E4
514 515 -2.421955E4
515 514 -2.492055E4
515 515 4.91401E4
515 516 -2.421955E4
516 515 -2.492055E4
516 516 4.91401E4
516 517 -2.421955E4
517 516 -2.492055E4
517 517 4.91401E4
517 518 -2.421955E4
518 517 -2.492055E4
518 518 4.91401E4
518 519 -2.421955E4
519 518 -2.492055E4
519 519 4.91401E4
519 520 -2.421955E4
520 519 -2.492055E4
520 520 4.91401E4
520 521 -2.421955E4
521 520 -2.492055E4
521 521 4.91401E4
521 522 -2.421955E4
522 521 -2.492055E4
522 522 4.91401E4
522 523 -2.421955E4
523 522 -2.492055E4
523 523 4.91401E4
523 524 -2.421955E4
524 523 -2.492055E4
524 524 4.91401E4
524 525 -2.421955E4
525 524 -2.492055E4
525 525 4.91401E4
525 526 -2.421955E4
526 525 -2.492055E4
526 526 4.91401E4
526 527 -2.421955E4
527 526 -2.492055E4
527 527 4.91401E4
527 528 -2.421955E4
528 527 -2.492055E4
528 528 4.91401E4
528 529 -2.421955E4
529 528 -2.492055E4
529 529 4.91401E4
529 530 -2.421955E4
530 529 -2.492055E4
530 530 4.91401E4
530 531 -2.421955E4
531 530 -2.492055E4
531 531 4.91401E4
531 532 -2.421955E4
532 531 -2.492055E4
532 532 4.91401E4
532 533 -2.421955E4
533 532 -2.492055E4
533 533 4.91401E4
533 534 -2.421955E4
534 533 -2.492055E4
534 534 4.91401E4
534 535 -2.421955E4
535 534 -2.492055E4
535 535 4.91401E4
535 536 -2.421955E4
536 535 -2.492055E4
536 536 4.91401E4
536 537 -2.421955E4
537 536 -2.492055E4
537 537 4.91401E4
537 538 -2.421955E4
538 537 -2.492055E4
538 538 4.91401E4
538 539 -2.421955E4
539 538 -2.492055E4
539 539 4.91401E4
539 540 -2.421955E4
540 539 -2.492055E4
540 540 4.91401E4
540 541 -2.421955E4
541 540 -2.492055E4
541 541 4.91401E4
541 542 -2.421955E4
542 541 -2.492055E4
542 542 4.91401E4
542 543 -2.421955E4
543 542 -2.492055E4
543 543 4.91401E4
543 544 -2.421955E4
544 543 -2.492055E4
544 544 4.91401E4
544 545 -2.421955E4
545 544 -2.492055E4
545 545 4.91401E4
545 546 -2.421955E4
546 545 -2.492055E4
546 546 4.91401E4
546 547 -2.421955E4
547 546 -2.492055E4
547 547 4.91401E4
547 548 -2.421955E4
548 547 -2.492055E4
548 548 4.91401E4
548 549 -2.421955E4
549 548 -2.492055E4
549 549 4.91401E4
549 550 -2.421955E4
550 549 -2.492055E4
550 550 4.91401E4
550 551 -2.421955E4
551 550 -2.492055E4
551 551 4.91401E4
551 552 -2.421955E4
552 551 -2.492055E4
552 552 4.91401E4
552 553 -2.421955E4
553 552 -2.492055E4
553 553 4.91401E4
553 554 -2.421955E4
554 553 -2.492055E4
554 554 4.91401E4
554 555 -2.421955E4
555 554 -2.492055E4
555 555 4.91401E4
555 556 -2.421955E4
556 555 -2.492055E4
556 556 4.91401E4
556 557 -2.421955E4
557 556 -2.492055E4
557 557 4.91401E4
557 558 -2.421955E4
558 557 -2.492055E4
558 558 4.91401E4
558 559 -2.421955E4
559 558 -2.492055E4
559 559 4.91401E4
559 560 -2.421955E4
560 559 -2.492055E4
560 560 4.91401E4
560 561 -2.421955E4
561 560 -2.492055E4
561 561 4.91401E4
561 562 -2.421955E4
562 561 -2.492055E4
562 562 4.91401E4
562 563 -2.421955E4
563 562 -2.492055E4
563 563 4.91401E4
563 564 -2.421955E4
564 563 -2.492055E4
564 564 4.91401E4
564 565 -2.421955E4
565 564 -2.492055E4
565 565 4.91401E4
565 566 -2.421955E4
566 565 -2.492055E4
566 566 4.91401E4
566 567 -2.421955E4
567 566 -2.492055E4
567 567 4.91401E4
567 568 -2.421955E4
568 567 -2.492055E4
568 568 4.91401E4
568 569 -2.421955E4
569 568 -2.492055E4
569 569 4.91401E4
569 570 -2.421955E4
570 569 -2.492055E4
570 570 4.91401E4
570 571 -2.421955E4
571 570 -2.492055E4
571 571 4.91401E4
571 572 -2.421955E4
572 571 -2.492055E4
572 572 4.91401E4
572 573 -2.421955E4
573 572 -2.492055E4
573 573 4.91401E4
573 574 -2.421955E4
574 573 -2.492055E4
574 574 4.91401E4
574 575 -2.421955E4
575 574 -2.492055E4
575 575 4.91401E4
575 576 -2.421955E4
576 575 -2.492055E4
576 576 4.91401E4
576 577 -2.421955E4
577 576 -2.492055E4
577 577 4.91401E4
577 578 -2.421955E4
578 577 -2.492055E4
578 578 4.91401E4
578 579 -2.421955E4
579 578 -2.492055E4
579 579 4.91401E4
579 580 -2.421955E4
580 579 -2.492055E4
580 580 4.91401E4
580 581 -2.421955E4
581 580 -2.492055E4
581 581 4.91401E4
581 582 -2.421955E4
582 581 -2.492055E4
582 582 4.91401E4
582 583 -2.421955E4
583 582 -2.492055E4
583 583 4.91401E4
583 584 -2.421955E4
584 583 -2.492055E4
584 584 4.91401E4
584 585 -2.421955E4
585 584 -2.492055E4
585 585 4.91401E4
585 586 -2.421955E4
586 585 -2.492055E4
586 586 4.91401E4
586 587 -2.421955E4
587 586 -2.492055E4
587 587 4.91401E4
587 588 -2.421955E4
588 587 -2.492055E4
588 588 4.91401E4
588 589 -2.421955E4
589 588 -2.492055E4
589 589 4.91401E4
589 590 -2.421955E4
590 589 -2.492055E4
590 590 4.91401E4
590 591 -2.421955E4
591 590 -2.492055E4
591 591 4.91401E4
591 592 -2.421955E4
592 591 -2.492055E4
592 592 4.91401E4
592 593 -2.421955E4
593 592 -2.492055E4
593 593 4.91401E4
593 594 -2.421955E4
594 593 -2.492055E4
594 594 4.91401E4
594 595 -2.421955E4
595 594 -2.492055E4
595 595 4.91401E4
595 596 -2.421955E4
596 595 -2.492055E4
596 596 4.91401E4
596 597 -2.421955E4
597 596 -2.492055E4
597 597 4.91401E4
597 598 -2.421955E4
598 597 -2.492055E4
598 598 4.91401E4
598 599 -2.421955E4
599 598 -2.492055E4
599 599 4.91401E4
599 600 -2.421955E4
600 599 -2.492055E4
600 600 4.91401E4
600 601 -2.421955E4
601 600 -2.492055E4
601 601 4.91401E4
601 602 -2.421955E4
602 601 -2.492055E4
602 602 4.91401E4
602 603 -2.421955E4
603 602 -2.492055E4
603 603 4.91401E4
603 604 -2.421955E4
604 603 -2.492055E4
604 604 4.91401E4
604 605 -2.421955E4
605 604 -2.492055E4
605 605 4.91401E4
605 606 -2.421955E4
606 605 -2.492055E4
606 606 4.91401E4
606 607 -2.421955E4
607 606 -2.492055E4
607 607 4.91401E4
607 608 -2.421955E4
608 607 -2.492055E4
608 608 4.91401E4
608 609 -2.421955E4
609 608 -2.492055E4
609 609 4.91401E4
609 610 -2.421955E4
610 609 -2.492055E4
610 610 4.91401E4
610 611 -2.421955E4
611 610 -2.492055E4
611 611 4.91401E4
611 612 -2.421955E4
612 611 -2.492055E4
612 612 4.91401E4
612 613 -2.421955E4
613 612 -2.492055E4
613 613 4.91401E4
613 614 -2.421955E4
614 613 -2.492055E4
614 614 4.91401E4
614 615 -2.421955E4
615 614 -2.492055E4
615 615 4.91401E4
615 616 -2.421955E4
616 615 -2.492055E4
616 616 4.91401E4
616 617 -2.421955E4
617 616 -2.492055E4
617 617 4.91401E4
617 618 -2.421955E4
618 617 -2.492055E4
618 618 4.91401E4
618 619 -2.421955E4
619 618 -2.492055E4
619 619 4.91401E4
619 620 -2.421955E4
620 619 -2.492055E4
620 620 4.91401E4
620 621 -2.421955E4
621 620 -2.492055E4
621 621 4.91401E4
621 622 -2.421955E4
622 621 -2.492055E4
622 622 4.91401E4
622 623 -2.421955E4
623 622 -2.492055E4
623 623 4.91401E4
623 624 -2.421955E4
624 623 -2.492055E4
624 624 4.91401E4
624 625 -2.421955E4
625 624 -2.492055E4
625 625 4.91401E4
625 626 -2.421955E4
626 625 -2.492055E4
626 626 4.91401E4
626 627 -2.421955E4
627 626 -2.492055E4
627 627 4.91401E4
627 628 -2.421955E4
628 627 -2.492055E4
628 628 4.91401E4
628 629 -2.421955E4
629 628 -2.492055E4
629 629 4.91401E4
629 630 -2.421955E4
630 629 -2.492055E4
630 630 4.91401E4
630 631 -2.421955E4
631 630 -2.492055E4
631 631 4.91401E4
631 632 -2.421955E4
632 631 -2.492055E4
632 632 4.91401E4
632 633 -2.421955E4
633 632 -2.492055E4
633 633 4.91401E4
633 634 -2.421955E4
634 633 -2.492055E4
634 634 4.91401E4
634 635 -2.421955E4
635 634 -2.492055E4
635 635 4.91401E4
635 636 -2.421955E4
636 635 -2.492055E4
636 636 4.91401E4
636 637 -2.421955E4
637 636 -2.492055E4
637 637 4.91401E4
637 638 -2.421955E4
638 637 -2.492055E4
638 638 4.91401E4
638 639 -2.421955E4
639 638 -2.492055E4
639 639 4.91401E4
639 640 -2.421955E4
640 639 -2.492055E4
640 640 4.91401E4
640 641 -2.421955E4
641 640 -2.492055E4
641 641 4.91401E4
641 642 -2.421955E4
642 641 -2.492055E4
642 642 4.91401E4
642 643 -2.421955E4
643 642 -2.492055E4
643 643 4.91401E4
643 644 -2.421955E4
644 643 -2.492055E4
644 644 4.91401E4
644 645 -2.421955E4
645 644 -2.492055E4
645 645 4.91401E4
645 646 -2.421955E4
646 645 -2.492055E4
646 646 4.91401E4
646 647 -2.421955E4
647 646 -2.492055E4
647 647 4.91401E4
647 648 -2.421955E4
648 647 -2.492055E4
648 648 4.91401E4
648 649 -2.421955E4
649 648 -2.492055E4
649 649 4.91401E4
649 650 -2.421955E4
650 649 -2.492055E4
650 650 4.91401E4
650 651 -2.421955E4
651 650 -2.492055E4
651 651 4.91401E4
651 652 -2.421955E4
652 651 -2.492055E4
652 652 4.91401E4
652 653 -2.421955E4
653 652 -2.492055E4
653 653 4.91401E4
653 654 -2.421955E4
654 653 -2.492055E4
654 654 4.91401E4
654 655 -2.421955E4
655 654 -2.492055E4
655 655 4.91401E4
655 656 -2.421955E4
656 655 -2.492055E4
656 656 4.91401E4
656 657 -2.421955E4
657 656 -2.492055E4
657 657 4.91401E4
657 658 -2.421955E4
658 657 -2.492055E4
658 658 4.91401E4
658 659 -2.421955E4
659 658 -2.492055E4
659 659 4.91401E4
659 660 -2.421955E4
660 659 -2.492055E4
660 660 4.91401E4
660 661 -2.421955E4
661 660 -2.492055E4
661 661 4.91401E4
661 662 -2.421955E4
662 661 -2.492055E4
662 662 4.91401E4
662 663 -2.421955E4
663 662 -2.492055E4
663 663 4.91401E4
663 664 -2.421955E4
664 663 -2.492055E4
664 664 4.91401E4
664 665 -2.421955E4
665 664 -2.492055E4
665 665 4.91401E4
665 666 -2.421955E4
666 665 -2.492055E4
666 666 4.91401E4
666 667 -2.421955E4
667 666 -2.492055E4
667 667 4.91401E4
667 668 -2.421955E4
668 667 -2.492055E4
668 668 4.91401E4
668 669 -2.421955E4
669 668 -2.492055E4
669 669 4.91401E4
669 670 -2.421955E4
670 669 -2.492055E4
670 670 4.91401E4
670 671 -2.421955E4
671 670 -2.492055E4
671 671 4.91401E4
671 672 -2.421955E4
672 671 -2.492055E4
672 672 4.91401E4
672 673 -2.421955E4
673 672 -2.492055E4
673 673 4.91401E4
673 674 -2.421955E4
674 673 -2.492055E4
674 674 4.91401E4
674 675 -2.421955E4
675 674 -2.492055E4
675 675 4.91401E4
675 676 -2.421955E4
676 675 -2.492055E4
676 676 4.91401E4
676 677 -2.421955E4
677 676 -2.492055E4
677 677 4.91401E4
677 678 -2.421955E4
678 677 -2.492055E4
678 678 4.91401E4
678 679 -2.421955E4
679 678 -2.492055E4
679 679 4.91401E4
679 680 -2.421955E4
680 679 -2.492055E4
680 680 4.91401E4
680 681 -2.421955E4
681 680 -2.492055E4
681 681 4.91401E4
681 682 -2.421955E4
682 681 -2.492055E4
682 682 4.91401E4
682 683 -2.421955E4
683 682 -2.492055E4
683 683 4.91401E4
683 684 -2.421955E4
684 683 -2.492055E4
684 684 4.91401E4
684 685 -2.421955E4
685 684 -2.492055E4
685 685 4.91401E4
685 686 -2.421955E4
686 685 -2.492055E4
686 686 4.91401E4
686 687 -2.421955E4
687 686 -2.492055E4
687 687 4.91401E4
687 688 -2.421955E4
688 687 -2.492055E4
688 688 4.91401E4
688 689 -2.421955E4
689 688 -2.492055E4
689 689 4.91401E4
689 690 -2.421955E4
690 689 -2.492055E4
690 690 4.91401E4
690 691 -2.421955E4
691 690 -2.492055E4
691 691 4.91401E4
691 692 -2.421955E4
692 691 -2.492055E4
692 692 4.91401E4
692 693 -2.421955E4
693 692 -2.492055E4
693 693 4.91401E4
693 694 -2.421955E4
694 693 -2.492055E4
694 694 4.91401E4
694 695 -2.421955E4
695 694 -2.492055E4
695 695 4.91401E4
695 696 -2.421955E4
696 695 -2.492055E4
696 696 4.91401E4
696 697 -2.421955E4
697 696 -2.492055E4
697 697 4.91401E4
697 698 -2.421955E4
698 697 -2.492055E4
698 698 4.91401E4
698 699 -2.421955E4
699 698 -2.492055E4
699 699 4.91401E4
699 700 -2.421955E4
700 699 -2.492055E4
700 700 4.91401E4
