%%MatrixMarket matrix coordinate real general
% 1D convection-diffusion (-eps*u'' + beta*u' = f), central FD, n=600, eps=0.15, beta=1.0, kappa~=68863
600 600 1798
1 1 1.0836029999999999E5
1 2 -5.3879649999999994E4
2 1 -5.4480649999999994E4
2 2 1.0836029999999999E5
2 3 -5.3879649999999994E4
3 2 -5.4480649999999994E4
3 3 1.0836029999999999E5
3 4 -5.3879649999999994E4
4 3 -5.4480649999999994E4
4 4 1.0836029999999999E5
4 5 -5.3879649999999994E4
5 4 -5.4480649999999994E4
5 5 1.0836029999999999E5
5 6 -5.3879649999999994E4
6 5 -5.4480649999999994E4
6 6 1.0836029999999999E5
6 7 -5.3879649999999994E4
7 6 -5.4480649999999994E4
7 7 1.0836029999999999E5
7 8 -5.3879649999999994E4
8 7 -5.4480649999999994E4
8 8 1.0836029999999999E5
8 9 -5.3879649999999994E4
9 8 -5.4480649999999994E4
9 9 1.0836029999999999E5
9 10 -5.3879649999999994E4
10 9 -5.4480649999999994E4
10 10 1.0836029999999999E5
10 11 -5.3879649999999994E4
11 10 -5.4480649999999994E4
11 11 1.0836029999999999E5
11 12 -5.3879649999999994E4
12 11 -5.4480649999999994E4
12 12 1.0836029999999999E5
12 13 -5.3879649999999994E4
13 12 -5.4480649999999994E4
13 13 1.0836029999999999E5
13 14 -5.3879649999999994E4
14 13 -5.4480649999999994E4
14 14 1.0836029999999999E5
14 15 -5.3879649999999994E4
15 14 -5.4480649999999994E4
15 15 1.0836029999999999E5
15 16 -5.3879649999999994E4
16 15 -5.4480649999999994E4
16 16 1.0836029999999999E5
16 17 -5.3879649999999994E4
17 16 -5.4480649999999994E4
17 17 1.0836029999999999E5
17 18 -5.3879649999999994E4
18 17 -5.4480649999999994E4
18 18 1.0836029999999999E5
18 19 -5.3879649999999994E4
19 18 -5.4480649999999994E4
19 19 1.0836029999999999E5
19 20 -5.3879649999999994E4
20 19 -5.4480649999999994E4
20 20 1.0836029999999999E5
20 21 -5.3879649999999994E4
21 20 -5.4480649999999994E4
21 21 1.0836029999999999E5
21 22 -5.3879649999999994E4
22 21 -5.4480649999999994E4
22 22 1.0836029999999999E5
22 23 -5.3879649999999994E4
23 22 -5.4480649999999994E4
23 23 1.0836029999999999E5
23 24 -5.3879649999999994E4
24 23 -5.4480649999999994E4
24 24 1.0836029999999999E5
24 25 -5.3879649999999994E4
25 24 -5.4480649999999994E4
25 25 1.0836029999999999E5
25 26 -5.3879649999999994E4
26 25 -5.4480649999999994E4
26 26 1.0836029999999999E5
26 27 -5.3879649999999994E4
27 26 -5.4480649999999994E4
27 27 1.0836029999999999E5
27 28 -5.3879649999999994E4
28 27 -5.4480649999999994E4
28 28 1.0836029999999999E5
28 29 -5.3879649999999994E4
29 28 -5.4480649999999994E4
29 29 1.0836029999999999E5
29 30 -5.3879649999999994E4
30 29 -5.4480649999999994E4
30 30 1.0836029999999999E5
30 31 -5.3879649999999994E4
31 30 -5.4480649999999994E4
31 31 1.0836029999999999E5
31 32 -5.3879649999999994E4
32 31 -5.4480649999999994E4
32 32 1.0836029999999999E5
32 33 -5.3879649999999994E4
33 32 -5.4480649999999994E4
33 33 1.0836029999999999E5
33 34 -5.3879649999999994E4
34 33 -5.4480649999999994E4
34 34 1.0836029999999999E5
34 35 -5.3879649999999994E4
35 34 -5.4480649999999994E4
35 35 1.0836029999999999E5
35 36 -5.3879649999999994E4
36 35 -5.4480649999999994E4
36 36 1.0836029999999999E5
36 37 -5.3879649999999994E4
37 36 -5.4480649999999994E4
37 37 1.0836029999999999E5
37 38 -5.3879649999999994E4
38 37 -5.4480649999999994E4
38 38 1.0836029999999999E5
38 39 -5.3879649999999994E4
39 38 -5.4480649999999994E4
39 39 1.0836029999999999E5
39 40 -5.3879649999999994E4
40 39 -5.4480649999999994E4
40 40 1.0836029999999999E5
40 41 -5.3879649999999994E4
41 40 -5.4480649999999994E4
41 41 1.0836029999999999E5
41 42 -5.3879649999999994E4
42 41 -5.4480649999999994E4
42 42 1.0836029999999999E5
42 43 -5.3879649999999994E4
43 42 -5.4480649999999994E4
43 43 1.0836029999999999E5
43 44 -5.3879649999999994E4
44 43 -5.4480649999999994E4
44 44 1.0836029999999999E5
44 45 -5.3879649999999994E4
45 44 -5.4480649999999994E4
45 45 1.0836029999999999E5
45 46 -5.3879649999999994E4
46 45 -5.4480649999999994E4
46 46 1.0836029999999999E5
46 47 -5.3879649999999994E4
47 46 -5.4480649999999994E4
47 47 1.0836029999999999E5
47 48 -5.3879649999999994E4
48 47 -5.4480649999999994E4
48 48 1.0836029999999999E5
48 49 -5.3879649999999994E4
49 48 -5.4480649999999994E4
49 49 1.0836029999999999E5
49 50 -5.3879649999999994E4
50 49 -5.4480649999999994E4
50 50 1.0836029999999999E5
50 51 -5.3879649999999994E4
51 50 -5.4480649999999994E4
51 51 1.0836029999999999E5
51 52 -5.3879649999999994E4
52 51 -5.4480649999999994E4
52 52 1.0836029999999999E5
52 53 -5.3879649999999994E4
53 52 -5.4480649999999994E4
53 53 1.0836029999999999E5
53 54 -5.3879649999999994E4
54 53 -5.4480649999999994E4
54 54 1.0836029999999999E5
54 55 -5.3879649999999994E4
55 54 -5.4480649999999994E4
55 55 1.0836029999999999E5
55 56 -5.3879649999999994E4
56 55 -5.4480649999999994E4
56 56 1.0836029999999999E5
56 57 -5.3879649999999994E4
57 56 -5.4480649999999994E4
57 57 1.0836029999999999E5
57 58 -5.3879649999999994E4
58 57 -5.4480649999999994E4
58 58 1.0836029999999999E5
58 59 -5.3879649999999994E4
59 58 -5.4480649999999994E4
59 59 1.0836029999999999E5
59 60 -5.3879649999999994E4
60 59 -5.4480649999999994E4
60 60 1.0836029999999999E5
60 61 -5.3879649999999994E4
61 60 -5.4480649999999994E4
61 61 1.0836029999999999E5
61 62 -5.3879649999999994E4
62 61 -5.4480649999999994E4
62 62 1.0836029999999999E5
62 63 -5.3879649999999994E4
63 62 -5.4480649999999994E4
63 63 1.0836029999999999E5
63 64 -5.3879649999999994E4
64 63 -5.4480649999999994E4
64 64 1.0836029999999999E5
64 65 -5.3879649999999994E4
65 64 -5.4480649999999994E4
65 65 1.0836029999999999E5
65 66 -5.3879649999999994E4
66 65 -5.4480649999999994E4
66 66 1.0836029999999999E5
66 67 -5.3879649999999994E4
67 66 -5.4480649999999994E4
67 67 1.0836029999999999E5
67 68 -5.3879649999999994E4
68 67 -5.4480649999999994E4
68 68 1.0836029999999999E5
68 69 -5.3879649999999994E4
69 68 -5.4480649999999994E4
69 69 1.0836029999999999E5
69 70 -5.3879649999999994E4
70 69 -5.4480649999999994E4
70 70 1.0836029999999999E5
70 71 -5.3879649999999994E4
71 70 -5.4480649999999994E4
71 71 1.0836029999999999E5
71 72 -5.3879649999999994E4
72 71 -5.4480649999999994E4
72 72 1.0836029999999999E5
72 73 -5.3879649999999994E4
73 72 -5.4480649999999994E4
73 73 1.0836029999999999E5
73 74 -5.3879649999999994E4
74 73 -5.4480649999999994E4
74 74 1.0836029999999999E5
74 75 -5.3879649999999994E4
75 74 -5.4480649999999994E4
75 75 1.0836029999999999E5
75 76 -5.3879649999999994E4
76 75 -5.4480649999999994E4
76 76 1.0836029999999999E5
76 77 -5.3879649999999994E4
77 76 -5.4480649999999994E4
77 77 1.0836029999999999E5
77 78 -5.3879649999999994E4
78 77 -5.4480649999999994E4
78 78 1.0836029999999999E5
78 79 -5.3879649999999994E4
79 78 -5.4480649999999994E4
79 79 1.0836029999999999E5
79 80 -5.3879649999999994E4
80 79 -5.4480649999999994E4
80 80 1.0836029999999999E5
80 81 -5.3879649999999994E4
81 80 -5.4480649999999994E4
81 81 1.0836029999999999E5
81 82 -5.3879649999999994E4
82 81 -5.4480649999999994E4
82 82 1.0836029999999999E5
82 83 -5.3879649999999994E4
83 82 -5.4480649999999994E4
83 83 1.0836029999999999E5
83 84 -5.3879649999999994E4
84 83 -5.4480649999999994E4
84 84 1.0836029999999999E5
84 85 -5.3879649999999994E4
85 84 -5.4480649999999994E4
85 85 1.0836029999999999E5
85 86 -5.3879649999999994E4
86 85 -5.4480649999999994E4
86 86 1.0836029999999999E5
86 87 -5.3879649999999994E4
87 86 -5.4480649999999994E4
87 87 1.0836029999999999E5
87 88 -5.3879649999999994E4
88 87 -5.4480649999999994E4
88 88 1.0836029999999999E5
88 89 -5.3879649999999994E4
89 88 -5.4480649999999994E4
89 89 1.0836029999999999E5
89 90 -5.3879649999999994E4
90 89 -5.4480649999999994E4
90 90 1.0836029999999999E5
90 91 -5.3879649999999994E4
91 90 -5.4480649999999994E4
91 91 1.0836029999999999E5
91 92 -5.3879649999999994E4
92 91 -5.4480649999999994E4
92 92 1.0836029999999999E5
92 93 -5.3879649999999994E4
93 92 -5.4480649999999994E4
93 93 1.0836029999999999E5
93 94 -5.3879649999999994E4
94 93 -5.4480649999999994E4
94 94 1.0836029999999999E5
94 95 -5.3879649999999994E4
95 94 -5.4480649999999994E4
95 95 1.0836029999999999E5
95 96 -5.3879649999999994E4
96 95 -5.4480649999999994E4
96 96 1.0836029999999999E5
96 97 -5.3879649999999994E4
97 96 -5.4480649999999994E4
97 97 1.0836029999999999E5
97 98 -5.3879649999999994E4
98 97 -5.4480649999999994E4
98 98 1.0836029999999999E5
98 99 -5.3879649999999994E4
99 98 -5.4480649999999994E4
99 99 1.0836029999999999E5
99 100 -5.3879649999999994E4
100 99 -5.4480649999999994E4
100 100 1.0836029999999999E5
100 101 -5.3879649999999994E4
101 100 -5.4480649999999994E4
101 101 1.0836029999999999E5
101 102 -5.3879649999999994E4
102 101 -5.4480649999999994E4
102 102 1.0836029999999999E5
102 103 -5.3879649999999994E4
103 102 -5.4480649999999994E4
103 103 1.0836029999999999E5
103 104 -5.3879649999999994E4
104 103 -5.4480649999999994E4
104 104 1.0836029999999999E5
104 105 -5.3879649999999994E4
105 104 -5.4480649999999994E4
105 105 1.0836029999999999E5
105 106 -5.3879649999999994E4
106 105 -5.4480649999999994E4
106 106 1.0836029999999999E5
106 107 -5.3879649999999994E4
107 106 -5.4480649999999994E4
107 107 1.0836029999999999E5
107 108 -5.3879649999999994E4
108 107 -5.4480649999999994E4
108 108 1.0836029999999999E5
108 109 -5.3879649999999994E4
109 108 -5.4480649999999994E4
109 109 1.0836029999999999E5
109 110 -5.3879649999999994E4
110 109 -5.4480649999999994E4
110 110 1.0836029999999999E5
110 111 -5.3879649999999994E4
111 110 -5.4480649999999994E4
111 111 1.0836029999999999E5
111 112 -5.3879649999999994E4
112 111 -5.4480649999999994E4
112 112 1.0836029999999999E5
112 113 -5.3879649999999994E4
113 112 -5.4480649999999994E4
113 113 1.0836029999999999E5
113 114 -5.3879649999999994E4
114 113 -5.4480649999999994E4
114 114 1.0836029999999999E5
114 115 -5.3879649999999994E4
115 114 -5.4480649999999994E4
115 115 1.0836029999999999E5
115 116 -5.3879649999999994E4
116 115 -5.4480649999999994E4
116 116 1.0836029999999999E5
116 117 -5.3879649999999994E4
117 116 -5.4480649999999994E4
117 117 1.0836029999999999E5
117 118 -5.3879649999999994E4
118 117 -5.4480649999999994E4
118 118 1.0836029999999999E5
118 119 -5.3879649999999994E4
119 118 -5.4480649999999994E4
119 119 1.0836029999999999E5
119 120 -5.3879649999999994E4
120 119 -5.4480649999999994E4
120 120 1.0836029999999999E5
120 121 -5.3879649999999994E4
121 120 -5.4480649999999994E4
121 121 1.0836029999999999E5
121 122 -5.3879649999999994E4
122 121 -5.4480649999999994E4
122 122 1.0836029999999999E5
122 123 -5.3879649999999994E4
123 122 -5.4480649999999994E4
123 123 1.0836029999999999E5
123 124 -5.3879649999999994E4
124 123 -5.4480649999999994E4
124 124 1.0836029999999999E5
124 125 -5.3879649999999994E4
125 124 -5.4480649999999994E4
125 125 1.0836029999999999E5
125 126 -5.3879649999999994E4
126 125 -5.4480649999999994E4
126 126 1.0836029999999999E5
126 127 -5.3879649999999994E4
127 126 -5.4480649999999994E4
127 127 1.0836029999999999E5
127 128 -5.3879649999999994E4
128 127 -5.4480649999999994E4
128 128 1.0836029999999999E5
128 129 -5.3879649999999994E4
129 128 -5.4480649999999994E4
129 129 1.0836029999999999E5
129 130 -5.3879649999999994E4
130 129 -5.4480649999999994E4
130 130 1.0836029999999999E5
130 131 -5.3879649999999994E4
131 130 -5.4480649999999994E4
131 131 1.0836029999999999E5
131 132 -5.3879649999999994E4
132 131 -5.4480649999999994E4
132 132 1.0836029999999999E5
132 133 -5.3879649999999994E4
133 132 -5.4480649999999994E4
133 133 1.0836029999999999E5
133 134 -5.3879649999999994E4
134 133 -5.4480649999999994E4
134 134 1.0836029999999999E5
134 135 -5.3879649999999994E4
135 134 -5.4480649999999994E4
135 135 1.0836029999999999E5
135 136 -5.3879649999999994E4
136 135 -5.4480649999999994E4
136 136 1.0836029999999999E5
136 137 -5.3879649999999994E4
137 136 -5.4480649999999994E4
137 137 1.0836029999999999E5
137 138 -5.3879649999999994E4
138 137 -5.4480649999999994E4
138 138 1.0836029999999999E5
138 139 -5.3879649999999994E4
139 138 -5.4480649999999994E4
139 139 1.0836029999999999E5
139 140 -5.3879649999999994E4
140 139 -5.4480649999999994E4
140 140 1.0836029999999999E5
140 141 -5.3879649999999994E4
141 140 -5.4480649999999994E4
141 141 1.0836029999999999E5
141 142 -5.3879649999999994E4
142 141 -5.4480649999999994E4
142 142 1.0836029999999999E5
142 143 -5.3879649999999994E4
143 142 -5.4480649999999994E4
143 143 1.0836029999999999E5
143 144 -5.3879649999999994E4
144 143 -5.4480649999999994E4
144 144 1.0836029999999999E5
144 145 -5.3879649999999994E4
145 144 -5.4480649999999994E4
145 145 1.0836029999999999E5
145 146 -5.3879649999999994E4
146 145 -5.4480649999999994E4
146 146 1.0836029999999999E5
146 147 -5.3879649999999994E4
147 146 -5.4480649999999994E4
147 147 1.0836029999999999E5
147 148 -5.3879649999999994E4
148 147 -5.4480649999999994E4
148 148 1.0836029999999999E5
148 149 -5.3879649999999994E4
149 148 -5.4480649999999994E4
149 149 1.0836029999999999E5
149 150 -5.3879649999999994E4
150 149 -5.4480649999999994E4
150 150 1.0836029999999999E5
150 151 -5.3879649999999994E4
151 150 -5.4480649999999994E4
151 151 1.0836029999999999E5
151 152 -5.3879649999999994E4
152 151 -5.4480649999999994E4
152 152 1.0836029999999999E5
152 153 -5.3879649999999994E4
153 152 -5.4480649999999994E4
153 153 1.0836029999999999E5
153 154 -5.3879649999999994E4
154 153 -5.4480649999999994E4
154 154 1.0836029999999999E5
154 155 -5.3879649999999994E4
155 154 -5.4480649999999994E4
155 155 1.0836029999999999E5
155 156 -5.3879649999999994E4
156 155 -5.4480649999999994E4
156 156 1.0836029999999999E5
156 157 -5.3879649999999994E4
157 156 -5.4480649999999994E4
157 157 1.0836029999999999E5
157 158 -5.3879649999999994E4
158 157 -5.4480649999999994E4
158 158 1.0836029999999999E5
158 159 -5.3879649999999994E4
159 158 -5.4480649999999994E4
159 159 1.0836029999999999E5
159 160 -5.3879649999999994E4
160 159 -5.4480649999999994E4
160 160 1.0836029999999999E5
160 161 -5.3879649999999994E4
161 160 -5.4480649999999994E4
161 161 1.0836029999999999E5
161 162 -5.3879649999999994E4
162 161 -5.4480649999999994E4
162 162 1.0836029999999999E5
162 163 -5.3879649999999994E4
163 162 -5.4480649999999994E4
163 163 1.0836029999999999E5
163 164 -5.3879649999999994E4
164 163 -5.4480649999999994E4
164 164 1.0836029999999999E5
164 165 -5.3879649999999994E4
165 164 -5.4480649999999994E4
165 165 1.0836029999999999E5
165 166 -5.3879649999999994E4
166 165 -5.4480649999999994E4
166 166 1.0836029999999999E5
166 167 -5.3879649999999994E4
167 166 -5.4480649999999994E4
167 167 1.0836029999999999E5
167 168 -5.3879649999999994E4
168 167 -5.4480649999999994E4
168 168 1.0836029999999999E5
168 169 -5.3879649999999994E4
169 168 -5.4480649999999994E4
169 169 1.0836029999999999E5
169 170 -5.3879649999999994E4
170 169 -5.4480649999999994E4
170 170 1.0836029999999999E5
170 171 -5.3879649999999994E4
171 170 -5.4480649999999994E4
171 171 1.0836029999999999E5
171 172 -5.3879649999999994E4
172 171 -5.4480649999999994E4
172 172 1.0836029999999999E5
172 173 -5.3879649999999994E4
173 172 -5.4480649999999994E4
173 173 1.0836029999999999E5
173 174 -5.3879649999999994E4
174 173 -5.4480649999999994E4
174 174 1.0836029999999999E5
174 175 -5.3879649999999994E4
175 174 -5.4480649999999994E4
175 175 1.0836029999999999E5
175 176 -5.3879649999999994E4
176 175 -5.4480649999999994E4
176 176 1.0836029999999999E5
176 177 -5.3879649999999994E4
177 176 -5.4480649999999994E4
177 177 1.0836029999999999E5
177 178 -5.3879649999999994E4
178 177 -5.4480649999999994E4
178 178 1.0836029999999999E5
178 179 -5.3879649999999994E4
179 178 -5.4480649999999994E4
179 179 1.0836029999999999E5
179 180 -5.3879649999999994E4
180 179 -5.4480649999999994E4
180 180 1.0836029999999999E5
180 181 -5.3879649999999994E4
181 180 -5.4480649999999994E4
181 181 1.0836029999999999E5
181 182 -5.3879649999999994E4
182 181 -5.4480649999999994E4
182 182 1.0836029999999999E5
182 183 -5.3879649999999994E4
183 182 -5.4480649999999994E4
183 183 1.0836029999999999E5
183 184 -5.3879649999999994E4
184 183 -5.4480649999999994E4
184 184 1.0836029999999999E5
184 185 -5.3879649999999994E4
185 184 -5.4480649999999994E4
185 185 1.0836029999999999E5
185 186 -5.3879649999999994E4
186 185 -5.4480649999999994E4
186 186 1.0836029999999999E5
186 187 -5.3879649999999994E4
187 186 -5.4480649999999994E4
187 187 1.0836029999999999E5
187 188 -5.3879649999999994E4
188 187 -5.4480649999999994E4
188 188 1.0836029999999999E5
188 189 -5.3879649999999994E4
189 188 -5.4480649999999994E4
189 189 1.0836029999999999E5
189 190 -5.3879649999999994E4
190 189 -5.4480649999999994E4
190 190 1.0836029999999999E5
190 191 -5.3879649999999994E4
191 190 -5.4480649999999994E4
191 191 1.0836029999999999E5
191 192 -5.3879649999999994E4
192 191 -5.4480649999999994E4
192 192 1.0836029999999999E5
192 193 -5.3879649999999994E4
193 192 -5.4480649999999994E4
193 193 1.0836029999999999E5
193 194 -5.3879649999999994E4
194 193 -5.4480649999999994E4
194 194 1.0836029999999999E5
194 195 -5.3879649999999994E4
195 194 -5.4480649999999994E4
195 195 1.0836029999999999E5
195 196 -5.3879649999999994E4
196 195 -5.4480649999999994E4
196 196 1.0836029999999999E5
196 197 -5.3879649999999994E4
197 196 -5.4480649999999994E4
197 197 1.0836029999999999E5
197 198 -5.3879649999999994E4
198 197 -5.4480649999999994E4
198 198 1.0836029999999999E5
198 199 -5.3879649999999994E4
199 198 -5.4480649999999994E4
199 199 1.0836029999999999E5
199 200 -5.3879649999999994E4
200 199 -5.4480649999999994E4
200 200 1.0836029999999999E5
200 201 -5.3879649999999994E4
201 200 -5.4480649999999994E4
201 201 1.0836029999999999E5
201 202 -5.3879649999999994E4
202 201 -5.4480649999999994E4
202 202 1.0836029999999999E5
202 203 -5.3879649999999994E4
203 202 -5.4480649999999994E4
203 203 1.0836029999999999E5
203 204 -5.3879649999999994E4
204 203 -5.4480649999999994E4
204 204 1.0836029999999999E5
204 205 -5.3879649999999994E4
205 204 -5.4480649999999994E4
205 205 1.0836029999999999E5
205 206 -5.3879649999999994E4
206 205 -5.4480649999999994E4
206 206 1.0836029999999999E5
206 207 -5.3879649999999994E4
207 206 -5.4480649999999994E4
207 207 1.0836029999999999E5
207 208 -5.3879649999999994E4
208 207 -5.4480649999999994E4
208 208 1.0836029999999999E5
208 209 -5.3879649999999994E4
209 208 -5.4480649999999994E4
209 209 1.0836029999999999E5
209 210 -5.3879649999999994E4
210 209 -5.4480649999999994E4
210 210 1.0836029999999999E5
210 211 -5.3879649999999994E4
211 210 -5.4480649999999994E4
211 211 1.0836029999999999E5
211 212 -5.3879649999999994E4
212 211 -5.4480649999999994E4
212 212 1.0836029999999999E5
212 213 -5.3879649999999994E4
213 212 -5.4480649999999994E4
213 213 1.0836029999999999E5
213 214 -5.3879649999999994E4
214 213 -5.4480649999999994E4
214 214 1.0836029999999999E5
214 215 -5.3879649999999994E4
215 214 -5.4480649999999994E4
215 215 1.0836029999999999E5
215 216 -5.3879649999999994E4
216 215 -5.4480649999999994E4
216 216 1.0836029999999999E5
216 217 -5.3879649999999994E4
217 216 -5.4480649999999994E4
217 217 1.0836029999999999E5
217 218 -5.3879649999999994E4
218 217 -5.4480649999999994E4
218 218 1.0836029999999999E5
218 219 -5.3879649999999994E4
219 218 -5.4480649999999994E4
219 219 1.0836029999999999E5
219 220 -5.3879649999999994E4
220 219 -5.4480649999999994E4
220 220 1.0836029999999999E5
220 221 -5.3879649999999994E4
221 220 -5.4480649999999994E4
221 221 1.0836029999999999E5
221 222 -5.3879649999999994E4
222 221 -5.4480649999999994E4
222 222 1.0836029999999999E5
222 223 -5.3879649999999994E4
223 222 -5.4480649999999994E4
223 223 1.0836029999999999E5
223 224 -5.3879649999999994E4
224 223 -5.4480649999999994E4
224 224 1.0836029999999999E5
224 225 -5.3879649999999994E4
225 224 -5.4480649999999994E4
225 225 1.0836029999999999E5
225 226 -5.3879649999999994E4
226 225 -5.4480649999999994E4
226 226 1.0836029999999999E5
226 227 -5.3879649999999994E4
227 226 -5.4480649999999994E4
227 227 1.0836029999999999E5
227 228 -5.3879649999999994E4
228 227 -5.4480649999999994E4
228 228 1.0836029999999999E5
228 229 -5.3879649999999994E4
229 228 -5.4480649999999994E4
229 229 1.0836029999999999E5
229 230 -5.3879649999999994E4
230 229 -5.4480649999999994E4
230 230 1.0836029999999999E5
230 231 -5.3879649999999994E4
231 230 -5.4480649999999994E4
231 231 1.0836029999999999E5
231 232 -5.3879649999999994E4
232 231 -5.4480649999999994E4
232 232 1.0836029999999999E5
232 233 -5.3879649999999994E4
233 232 -5.4480649999999994E4
233 233 1.0836029999999999E5
233 234 -5.3879649999999994E4
234 233 -5.4480649999999994E4
234 234 1.0836029999999999E5
234 235 -5.3879649999999994E4
235 234 -5.4480649999999994E4
235 235 1.0836029999999999E5
235 236 -5.3879649999999994E4
236 235 -5.4480649999999994E4
236 236 1.0836029999999999E5
236 237 -5.3879649999999994E4
237 236 -5.4480649999999994E4
237 237 1.0836029999999999E5
237 238 -5.3879649999999994E4
238 237 -5.4480649999999994E4
238 238 1.0836029999999999E5
238 239 -5.3879649999999994E4
239 238 -5.4480649999999994E4
239 239 1.0836029999999999E5
239 240 -5.3879649999999994E4
240 239 -5.4480649999999994E4
240 240 1.0836029999999999E5
240 241 -5.3879649999999994E4
241 240 -5.4480649999999994E4
241 241 1.0836029999999999E5
241 242 -5.3879649999999994E4
242 241 -5.4480649999999994E4
242 242 1.0836029999999999E5
242 243 -5.3879649999999994E4
243 242 -5.4480649999999994E4
243 243 1.0836029999999999E5
243 244 -5.3879649999999994E4
244 243 -5.4480649999999994E4
244 244 1.0836029999999999E5
244 245 -5.3879649999999994E4
245 244 -5.4480649999999994E4
245 245 1.0836029999999999E5
245 246 -5.3879649999999994E4
246 245 -5.4480649999999994E4
246 246 1.0836029999999999E5
246 247 -5.3879649999999994E4
247 246 -5.4480649999999994E4
247 247 1.0836029999999999E5
247 248 -5.3879649999999994E4
248 247 -5.4480649999999994E4
248 248 1.0836029999999999E5
248 249 -5.3879649999999994E4
249 248 -5.4480649999999994E4
249 249 1.0836029999999999E5
249 250 -5.3879649999999994E4
250 249 -5.4480649999999994E4
250 250 1.0836029999999999E5
250 251 -5.3879649999999994E4
251 250 -5.4480649999999994E4
251 251 1.0836029999999999E5
251 252 -5.3879649999999994E4
252 251 -5.4480649999999994E4
252 252 1.0836029999999999E5
252 253 -5.3879649999999994E4
253 252 -5.4480649999999994E4
253 253 1.0836029999999999E5
253 254 -5.3879649999999994E4
254 253 -5.4480649999999994E4
254 254 1.0836029999999999E5
254 255 -5.3879649999999994E4
255 254 -5.4480649999999994E4
255 255 1.0836029999999999E5
255 256 -5.3879649999999994E4
256 255 -5.4480649999999994E4
256 256 1.0836029999999999E5
256 257 -5.3879649999999994E4
257 256 -5.4480649999999994E4
257 257 1.0836029999999999E5
257 258 -5.3879649999999994E4
258 257 -5.4480649999999994E4
258 258 1.0836029999999999E5
258 259 -5.3879649999999994E4
259 258 -5.4480649999999994E4
259 259 1.0836029999999999E5
259 260 -5.3879649999999994E4
260 259 -5.4480649999999994E4
260 260 1.0836029999999999E5
260 261 -5.3879649999999994E4
261 260 -5.4480649999999994E4
261 261 1.0836029999999999E5
261 262 -5.3879649999999994E4
262 261 -5.4480649999999994E4
262 262 1.0836029999999999E5
262 263 -5.3879649999999994E4
263 262 -5.4480649999999994E4
263 263 1.0836029999999999E5
263 264 -5.3879649999999994E4
264 263 -5.4480649999999994E4
264 264 1.0836029999999999E5
264 265 -5.3879649999999994E4
265 264 -5.4480649999999994E4
265 265 1.0836029999999999E5
265 266 -5.3879649999999994E4
266 265 -5.4480649999999994E4
266 266 1.0836029999999999E5
266 267 -5.3879649999999994E4
267 266 -5.4480649999999994E4
267 267 1.0836029999999999E5
267 268 -5.3879649999999994E4
268 267 -5.4480649999999994E4
268 268 1.0836029999999999E5
268 269 -5.3879649999999994E4
269 268 -5.4480649999999994E4
269 269 1.0836029999999999E5
269 270 -5.3879649999999994E4
270 269 -5.4480649999999994E4
270 270 1.0836029999999999E5
270 271 -5.3879649999999994E4
271 270 -5.4480649999999994E4
271 271 1.0836029999999999E5
271 272 -5.3879649999999994E4
272 271 -5.4480649999999994E4
272 272 1.0836029999999999E5
272 273 -5.3879649999999994E4
273 272 -5.4480649999999994E4
273 273 1.0836029999999999E5
273 274 -5.3879649999999994E4
274 273 -5.4480649999999994E4
274 274 1.0836029999999999E5
274 275 -5.3879649999999994E4
275 274 -5.4480649999999994E4
275 275 1.0836029999999999E5
275 276 -5.3879649999999994E4
276 275 -5.4480649999999994E4
276 276 1.0836029999999999E5
276 277 -5.3879649999999994E4
277 276 -5.4480649999999994E4
277 277 1.0836029999999999E5
277 278 -5.3879649999999994E4
278 277 -5.4480649999999994E4
278 278 1.0836029999999999E5
278 279 -5.3879649999999994E4
279 278 -5.4480649999999994E4
279 279 1.0836029999999999E5
279 280 -5.3879649999999994E4
280 279 -5.4480649999999994E4
280 280 1.0836029999999999E5
280 281 -5.3879649999999994E4
281 280 -5.4480649999999994E4
281 281 1.0836029999999999E5
281 282 -5.3879649999999994E4
282 281 -5.4480649999999994E4
282 282 1.0836029999999999E5
282 283 -5.3879649999999994E4
283 282 -5.4480649999999994E4
283 283 1.0836029999999999E5
283 284 -5.3879649999999994E4
284 283 -5.4480649999999994E4
284 284 1.0836029999999999E5
284 285 -5.3879649999999994E4
285 284 -5.4480649999999994E4
285 285 1.0836029999999999E5
285 286 -5.3879649999999994E4
286 285 -5.4480649999999994E4
286 286 1.0836029999999999E5
286 287 -5.3879649999999994E4
287 286 -5.4480649999999994E4
287 287 1.0836029999999999E5
287 288 -5.3879649999999994E4
288 287 -5.4480649999999994E4
288 288 1.0836029999999999E5
288 289 -5.3879649999999994E4
289 288 -5.4480649999999994E4
289 289 1.0836029999999999E5
289 290 -5.3879649999999994E4
290 289 -5.4480649999999994E4
290 290 1.0836029999999999E5
290 291 -5.3879649999999994E4
291 290 -5.4480649999999994E4
291 291 1.0836029999999999E5
291 292 -5.3879649999999994E4
292 291 -5.4480649999999994E4
292 292 1.0836029999999999E5
292 293 -5.3879649999999994E4
293 292 -5.4480649999999994E4
293 293 1.0836029999999999E5
293 294 -5.3879649999999994E4
294 293 -5.4480649999999994E4
294 294 1.0836029999999999E5
294 295 -5.3879649999999994E4
295 294 -5.4480649999999994E4
295 295 1.0836029999999999E5
295 296 -5.3879649999999994E4
296 295 -5.4480649999999994E4
296 296 1.0836029999999999E5
296 297 -5.3879649999999994E4
297 296 -5.4480649999999994E4
297 297 1.0836029999999999E5
297 298 -5.3879649999999994E4
298 297 -5.4480649999999994E4
298 298 1.0836029999999999E5
298 299 -5.3879649999999994E4
299 298 -5.4480649999999994E4
299 299 1.0836029999999999E5
299 300 -5.3879649999999994E4
300 299 -5.4480649999999994E4
300 300 1.0836029999999999E5
300 301 -5.3879649999999994E4
301 300 -5.4480649999999994E4
301 301 1.0836029999999999E5
301 302 -5.3879649999999994E4
302 301 -5.4480649999999994E4
302 302 1.0836029999999999E5
302 303 -5.3879649999999994E4
303 302 -5.4480649999999994E4
303 303 1.0836029999999999E5
303 304 -5.3879649999999994E4
304 303 -5.4480649999999994E4
304 304 1.0836029999999999E5
304 305 -5.3879649999999994E4
305 304 -5.4480649999999994E4
305 305 1.0836029999999999E5
305 306 -5.3879649999999994E4
306 305 -5.4480649999999994E4
306 306 1.0836029999999999E5
306 307 -5.3879649999999994E4
307 306 -5.4480649999999994E4
307 307 1.0836029999999999E5
307 308 -5.3879649999999994E4
308 307 -5.4480649999999994E4
308 308 1.0836029999999999E5
308 309 -5.3879649999999994E4
309 308 -5.4480649999999994E4
309 309 1.0836029999999999E5
309 310 -5.3879649999999994E4
310 309 -5.4480649999999994E4
310 310 1.0836029999999999E5
310 311 -5.3879649999999994E4
311 310 -5.4480649999999994E4
311 311 1.0836029999999999E5
311 312 -5.3879649999999994E4
312 311 -5.4480649999999994E4
312 312 1.0836029999999999E5
312 313 -5.3879649999999994E4
313 312 -5.4480649999999994E4
313 313 1.0836029999999999E5
313 314 -5.3879649999999994E4
314 313 -5.4480649999999994E4
314 314 1.0836029999999999E5
314 315 -5.3879649999999994E4
315 314 -5.4480649999999994E4
315 315 1.0836029999999999E5
315 316 -5.3879649999999994E4
316 315 -5.4480649999999994E4
316 316 1.0836029999999999E5
316 317 -5.3879649999999994E4
317 316 -5.4480649999999994E4
317 317 1.0836029999999999E5
317 318 -5.3879649999999994E4
318 317 -5.4480649999999994E4
318 318 1.0836029999999999E5
318 319 -5.3879649999999994E4
319 318 -5.4480649999999994E4
319 319 1.0836029999999999E5
319 320 -5.3879649999999994E4
320 319 -5.4480649999999994E4
320 320 1.0836029999999999E5
320 321 -5.3879649999999994E4
321 320 -5.4480649999999994E4
321 321 1.0836029999999999E5
321 322 -5.3879649999999994E4
322 321 -5.4480649999999994E4
322 322 1.0836029999999999E5
322 323 -5.3879649999999994E4
323 322 -5.4480649999999994E4
323 323 1.0836029999999999E5
323 324 -5.3879649999999994E4
324 323 -5.4480649999999994E4
324 324 1.0836029999999999E5
324 325 -5.3879649999999994E4
325 324 -5.4480649999999994E4
325 325 1.0836029999999999E5
325 326 -5.3879649999999994E4
326 325 -5.4480649999999994E4
326 326 1.0836029999999999E5
326 327 -5.3879649999999994E4
327 326 -5.4480649999999994E4
327 327 1.0836029999999999E5
327 328 -5.3879649999999994E4
328 327 -5.4480649999999994E4
328 328 1.0836029999999999E5
328 329 -5.3879649999999994E4
329 328 -5.4480649999999994E4
329 329 1.0836029999999999E5
329 330 -5.3879649999999994E4
330 329 -5.4480649999999994E4
330 330 1.0836029999999999E5
330 331 -5.3879649999999994E4
331 330 -5.4480649999999994E4
331 331 1.0836029999999999E5
331 332 -5.3879649999999994E4
332 331 -5.4480649999999994E4
332 332 1.0836029999999999E5
332 333 -5.3879649999999994E4
333 332 -5.4480649999999994E4
333 333 1.0836029999999999E5
333 334 -5.3879649999999994E4
334 333 -5.4480649999999994E4
334 334 1.0836029999999999E5
334 335 -5.3879649999999994E4
335 334 -5.4480649999999994E4
335 335 1.0836029999999999E5
335 336 -5.3879649999999994E4
336 335 -5.4480649999999994E4
336 336 1.0836029999999999E5
336 337 -5.3879649999999994E4
337 336 -5.4480649999999994E4
337 337 1.0836029999999999E5
337 338 -5.3879649999999994E4
338 337 -5.4480649999999994E4
338 338 1.0836029999999999E5
338 339 -5.3879649999999994E4
339 338 -5.4480649999999994E4
339 339 1.0836029999999999E5
339 340 -5.3879649999999994E4
340 339 -5.4480649999999994E4
340 340 1.0836029999999999E5
340 341 -5.3879649999999994E4
341 340 -5.4480649999999994E4
341 341 1.0836029999999999E5
341 342 -5.3879649999999994E4
342 341 -5.4480649999999994E4
342 342 1.0836029999999999E5
342 343 -5.3879649999999994E4
343 342 -5.4480649999999994E4
343 343 1.0836029999999999E5
343 344 -5.3879649999999994E4
344 343 -5.4480649999999994E4
344 344 1.0836029999999999E5
344 345 -5.3879649999999994E4
345 344 -5.4480649999999994E4
345 345 1.0836029999999999E5
345 346 -5.3879649999999994E4
346 345 -5.4480649999999994E4
346 346 1.0836029999999999E5
346 347 -5.3879649999999994E4
347 346 -5.4480649999999994E4
347 347 1.0836029999999999E5
347 348 -5.3879649999999994E4
348 347 -5.4480649999999994E4
348 348 1.0836029999999999E5
348 349 -5.3879649999999994E4
349 348 -5.4480649999999994E4
349 349 1.0836029999999999E5
349 350 -5.3879649999999994E4
350 349 -5.4480649999999994E4
350 350 1.0836029999999999E5
350 351 -5.3879649999999994E4
351 350 -5.4480649999999994E4
351 351 1.0836029999999999E5
351 352 -5.3879649999999994E4
352 351 -5.4480649999999994E4
352 352 1.0836029999999999E5
352 353 -5.3879649999999994E4
353 352 -5.4480649999999994E4
353 353 1.0836029999999999E5
353 354 -5.3879649999999994E4
354 353 -5.4480649999999994E4
354 354 1.0836029999999999E5
354 355 -5.3879649999999994E4
355 354 -5.4480649999999994E4
355 355 1.0836029999999999E5
355 356 -5.3879649999999994E4
356 355 -5.4480649999999994E4
356 356 1.0836029999999999E5
356 357 -5.3879649999999994E4
357 356 -5.4480649999999994E4
357 357 1.0836029999999999E5
357 358 -5.3879649999999994E4
358 357 -5.4480649999999994E4
358 358 1.0836029999999999E5
358 359 -5.3879649999999994E4
359 358 -5.4480649999999994E4
359 359 1.0836029999999999E5
359 360 -5.3879649999999994E4
360 359 -5.4480649999999994E4
360 360 1.0836029999999999E5
360 361 -5.3879649999999994E4
361 360 -5.4480649999999994E4
361 361 1.0836029999999999E5
361 362 -5.3879649999999994E4
362 361 -5.4480649999999994E4
362 362 1.0836029999999999E5
362 363 -5.3879649999999994E4
363 362 -5.4480649999999994E4
363 363 1.0836029999999999E5
363 364 -5.3879649999999994E4
364 363 -5.4480649999999994E4
364 364 1.0836029999999999E5
364 365 -5.3879649999999994E4
365 364 -5.4480649999999994E4
365 365 1.0836029999999999E5
365 366 -5.3879649999999994E4
366 365 -5.4480649999999994E4
366 366 1.0836029999999999E5
366 367 -5.3879649999999994E4
367 366 -5.4480649999999994E4
367 367 1.0836029999999999E5
367 368 -5.3879649999999994E4
368 367 -5.4480649999999994E4
368 368 1.0836029999999999E5
368 369 -5.3879649999999994E4
369 368 -5.4480649999999994E4
369 369 1.0836029999999999E5
369 370 -5.3879649999999994E4
370 369 -5.4480649999999994E4
370 370 1.0836029999999999E5
370 371 -5.3879649999999994E4
371 370 -5.4480649999999994E4
371 371 1.0836029999999999E5
371 372 -5.3879649999999994E4
372 371 -5.4480649999999994E4
372 372 1.0836029999999999E5
372 373 -5.3879649999999994E4
373 372 -5.4480649999999994E4
373 373 1.0836029999999999E5
373 374 -5.3879649999999994E4
374 373 -5.4480649999999994E4
374 374 1.0836029999999999E5
374 375 -5.3879649999999994E4
375 374 -5.4480649999999994E4
375 375 1.0836029999999999E5
375 376 -5.3879649999999994E4
376 375 -5.4480649999999994E4
376 376 1.0836029999999999E5
376 377 -5.3879649999999994E4
377 376 -5.4480649999999994E4
377 377 1.0836029999999999E5
377 378 -5.3879649999999994E4
378 377 -5.4480649999999994E4
378 378 1.0836029999999999E5
378 379 -5.3879649999999994E4
379 378 -5.4480649999999994E4
379 379 1.0836029999999999E5
379 380 -5.3879649999999994E4
380 379 -5.4480649999999994E4
380 380 1.0836029999999999E5
380 381 -5.3879649999999994E4
381 380 -5.4480649999999994E4
381 381 1.0836029999999999E5
381 382 -5.3879649999999994E4
382 381 -5.4480649999999994E4
382 382 1.0836029999999999E5
382 383 -5.3879649999999994E4
383 382 -5.4480649999999994E4
383 383 1.0836029999999999E5
383 384 -5.3879649999999994E4
384 383 -5.4480649999999994E4
384 384 1.0836029999999999E5
384 385 -5.3879649999999994E4
385 384 -5.4480649999999994E4
385 385 1.0836029999999999E5
385 386 -5.3879649999999994E4
386 385 -5.4480649999999994E4
386 386 1.0836029999999999E5
386 387 -5.3879649999999994E4
387 386 -5.4480649999999994E4
387 387 1.0836029999999999E5
387 388 -5.3879649999999994E4
388 387 -5.4480649999999994E4
388 388 1.0836029999999999E5
388 389 -5.3879649999999994E4
389 388 -5.4480649999999994E4
389 389 1.0836029999999999E5
389 390 -5.3879649999999994E4
390 389 -5.4480649999999994E4
390 390 1.0836029999999999E5
390 391 -5.3879649999999994E4
391 390 -5.4480649999999994E4
391 391 1.0836029999999999E5
391 392 -5.3879649999999994E4
392 391 -5.4480649999999994E4
392 392 1.0836029999999999E5
392 393 -5.3879649999999994E4
393 392 -5.4480649999999994E4
393 393 1.0836029999999999E5
393 394 -5.3879649999999994E4
394 393 -5.4480649999999994E4
394 394 1.0836029999999999E5
394 395 -5.3879649999999994E4
395 394 -5.4480649999999994E4
395 395 1.0836029999999999E5
395 396 -5.3879649999999994E4
396 395 -5.4480649999999994E4
396 396 1.0836029999999999E5
396 397 -5.3879649999999994E4
397 396 -5.4480649999999994E4
397 397 1.0836029999999999E5
397 398 -5.3879649999999994E4
398 397 -5.4480649999999994E4
398 398 1.0836029999999999E5
398 399 -5.3879649999999994E4
399 398 -5.4480649999999994E4
399 399 1.0836029999999999E5
399 400 -5.3879649999999994E4
400 399 -5.4480649999999994E4
400 400 1.0836029999999999E5
400 401 -5.3879649999999994E4
401 400 -5.4480649999999994E4
401 401 1.0836029999999999E5
401 402 -5.3879649999999994E4
402 401 -5.4480649999999994E4
402 402 1.0836029999999999E5
402 403 -5.3879649999999994E4
403 402 -5.4480649999999994E4
403 403 1.0836029999999999E5
403 404 -5.3879649999999994E4
404 403 -5.4480649999999994E4
404 404 1.0836029999999999E5
404 405 -5.3879649999999994E4
405 404 -5.4480649999999994E4
405 405 1.0836029999999999E5
405 406 -5.3879649999999994E4
406 405 -5.4480649999999994E4
406 406 1.0836029999999999E5
406 407 -5.3879649999999994E4
407 406 -5.4480649999999994E4
407 407 1.0836029999999999E5
407 408 -5.3879649999999994E4
408 407 -5.4480649999999994E4
408 408 1.0836029999999999E5
408 409 -5.3879649999999994E4
409 408 -5.4480649999999994E4
409 409 1.0836029999999999E5
409 410 -5.3879649999999994E4
410 409 -5.4480649999999994E4
410 410 1.0836029999999999E5
410 411 -5.3879649999999994E4
411 410 -5.4480649999999994E4
411 411 1.0836029999999999E5
411 412 -5.3879649999999994E4
412 411 -5.4480649999999994E4
412 412 1.0836029999999999E5
412 413 -5.3879649999999994E4
413 412 -5.4480649999999994E4
413 413 1.0836029999999999E5
413 414 -5.3879649999999994E4
414 413 -5.4480649999999994E4
414 414 1.0836029999999999E5
414 415 -5.3879649999999994E4
415 414 -5.4480649999999994E4
415 415 1.0836029999999999E5
415 416 -5.3879649999999994E4
416 415 -5.4480649999999994E4
416 416 1.0836029999999999E5
416 417 -5.3879649999999994E4
417 416 -5.4480649999999994E4
417 417 1.0836029999999999E5
417 418 -5.3879649999999994E4
418 417 -5.4480649999999994E4
418 418 1.0836029999999999E5
418 419 -5.3879649999999994E4
419 418 -5.4480649999999994E4
419 419 1.0836029999999999E5
419 420 -5.3879649999999994E4
420 419 -5.4480649999999994E4
420 420 1.0836029999999999E5
420 421 -5.3879649999999994E4
421 420 -5.4480649999999994E4
421 421 1.0836029999999999E5
421 422 -5.3879649999999994E4
422 421 -5.4480649999999994E4
422 422 1.0836029999999999E5
422 423 -5.3879649999999994E4
423 422 -5.4480649999999994E4
423 423 1.0836029999999999E5
423 424 -5.3879649999999994E4
424 423 -5.4480649999999994E4
424 424 1.0836029999999999E5
424 425 -5.3879649999999994E4
425 424 -5.4480649999999994E4
425 425 1.0836029999999999E5
425 426 -5.3879649999999994E4
426 425 -5.4480649999999994E4
426 426 1.0836029999999999E5
426 427 -5.3879649999999994E4
427 426 -5.4480649999999994E4
427 427 1.0836029999999999E5
427 428 -5.3879649999999994E4
428 427 -5.4480649999999994E4
428 428 1.0836029999999999E5
428 429 -5.3879649999999994E4
429 428 -5.4480649999999994E4
429 429 1.0836029999999999E5
429 430 -5.3879649999999994E4
430 429 -5.4480649999999994E4
430 430 1.0836029999999999E5
430 431 -5.3879649999999994E4
431 430 -5.4480649999999994E4
431 431 1.0836029999999999E5
431 432 -5.3879649999999994E4
432 431 -5.4480649999999994E4
432 432 1.0836029999999999E5
432 433 -5.3879649999999994E4
433 432 -5.4480649999999994E4
433 433 1.0836029999999999E5
433 434 -5.3879649999999994E4
434 433 -5.4480649999999994E4
434 434 1.0836029999999999E5
434 435 -5.3879649999999994E4
435 434 -5.4480649999999994E4
435 435 1.0836029999999999E5
435 436 -5.3879649999999994E4
436 435 -5.4480649999999994E4
436 436 1.0836029999999999E5
436 437 -5.3879649999999994E4
437 436 -5.4480649999999994E4
437 437 1.0836029999999999E5
437 438 -5.3879649999999994E4
438 437 -5.4480649999999994E4
438 438 1.0836029999999999E5
438 439 -5.3879649999999994E4
439 438 -5.4480649999999994E4
439 439 1.0836029999999999E5
439 440 -5.3879649999999994E4
440 439 -5.4480649999999994E4
440 440 1.0836029999999999E5
440 441 -5.3879649999999994E4
441 440 -5.4480649999999994E4
441 441 1.0836029999999999E5
441 442 -5.3879649999999994E4
442 441 -5.4480649999999994E4
442 442 1.0836029999999999E5
442 443 -5.3879649999999994E4
443 442 -5.4480649999999994E4
443 443 1.0836029999999999E5
443 444 -5.3879649999999994E4
444 443 -5.4480649999999994E4
444 444 1.0836029999999999E5
444 445 -5.3879649999999994E4
445 444 -5.4480649999999994E4
445 445 1.0836029999999999E5
445 446 -5.3879649999999994E4
446 445 -5.4480649999999994E4
446 446 1.0836029999999999E5
446 447 -5.3879649999999994E4
447 446 -5.4480649999999994E4
447 447 1.0836029999999999E5
447 448 -5.3879649999999994E4
448 447 -5.4480649999999994E4
448 448 1.0836029999999999E5
448 449 -5.3879649999999994E4
449 448 -5.4480649999999994E4
449 449 1.0836029999999999E5
449 450 -5.3879649999999994E4
450 449 -5.4480649999999994E4
450 450 1.0836029999999999E5
450 451 -5.3879649999999994E4
451 450 -5.4480649999999994E4
451 451 1.0836029999999999E5
451 452 -5.3879649999999994E4
452 451 -5.4480649999999994E4
452 452 1.0836029999999999E5
452 453 -5.3879649999999994E4
453 452 -5.4480649999999994E4
453 453 1.0836029999999999E5
453 454 -5.3879649999999994E4
454 453 -5.4480649999999994E4
454 454 1.0836029999999999E5
454 455 -5.3879649999999994E4
455 454 -5.4480649999999994E4
455 455 1.0836029999999999E5
455 456 -5.3879649999999994E4
456 455 -5.4480649999999994E4
456 456 1.0836029999999999E5
456 457 -5.3879649999999994E4
457 456 -5.4480649999999994E4
457 457 1.0836029999999999E5
457 458 -5.3879649999999994E4
458 457 -5.4480649999999994E4
458 458 1.0836029999999999E5
458 459 -5.3879649999999994E4
459 458 -5.4480649999999994E4
459 459 1.0836029999999999E5
459 460 -5.3879649999999994E4
460 459 -5.4480649999999994E4
460 460 1.0836029999999999E5
460 461 -5.3879649999999994E4
461 460 -5.4480649999999994E4
461 461 1.0836029999999999E5
461 462 -5.3879649999999994E4
462 461 -5.4480649999999994E4
462 462 1.0836029999999999E5
462 463 -5.3879649999999994E4
463 462 -5.4480649999999994E4
463 463 1.0836029999999999E5
463 464 -5.3879649999999994E4
464 463 -5.4480649999999994E4
464 464 1.0836029999999999E5
464 465 -5.3879649999999994E4
465 464 -5.4480649999999994E4
465 465 1.0836029999999999E5
465 466 -5.3879649999999994E4
466 465 -5.4480649999999994E4
466 466 1.0836029999999999E5
466 467 -5.3879649999999994E4
467 466 -5.4480649999999994E4
467 467 1.0836029999999999E5
467 468 -5.3879649999999994E4
468 467 -5.4480649999999994E4
468 468 1.0836029999999999E5
468 469 -5.3879649999999994E4
469 468 -5.4480649999999994E4
469 469 1.0836029999999999E5
469 470 -5.3879649999999994E4
470 469 -5.4480649999999994E4
470 470 1.0836029999999999E5
470 471 -5.3879649999999994E4
471 470 -5.4480649999999994E4
471 471 1.0836029999999999E5
471 472 -5.3879649999999994E4
472 471 -5.4480649999999994E4
472 472 1.0836029999999999E5
472 473 -5.3879649999999994E4
473 472 -5.4480649999999994E4
473 473 1.0836029999999999E5
473 474 -5.3879649999999994E4
474 473 -5.4480649999999994E4
474 474 1.0836029999999999E5
474 475 -5.3879649999999994E4
475 474 -5.4480649999999994E4
475 475 1.0836029999999999E5
475 476 -5.3879649999999994E4
476 475 -5.4480649999999994E4
476 476 1.0836029999999999E5
476 477 -5.3879649999999994E4
477 476 -5.4480649999999994E4
477 477 1.0836029999999999E5
477 478 -5.3879649999999994E4
478 477 -5.4480649999999994E4
478 478 1.0836029999999999E5
478 479 -5.3879649999999994E4
479 478 -5.4480649999999994E4
479 479 1.0836029999999999E5
479 480 -5.3879649999999994E4
480 479 -5.4480649999999994E4
480 480 1.0836029999999999E5
480 481 -5.3879649999999994E4
481 480 -5.4480649999999994E4
481 481 1.0836029999999999E5
481 482 -5.3879649999999994E4
482 481 -5.4480649999999994E4
482 482 1.0836029999999999E5
482 483 -5.3879649999999994E4
483 482 -5.4480649999999994E4
483 483 1.0836029999999999E5
483 484 -5.3879649999999994E4
484 483 -5.4480649999999994E4
484 484 1.0836029999999999E5
484 485 -5.3879649999999994E4
485 484 -5.4480649999999994E4
485 485 1.0836029999999999E5
485 486 -5.3879649999999994E4
486 485 -5.4480649999999994E4
486 486 1.0836029999999999E5
486 487 -5.3879649999999994E4
487 486 -5.4480649999999994E4
487 487 1.0836029999999999E5
487 488 -5.3879649999999994E4
488 487 -5.4480649999999994E4
488 488 1.0836029999999999E5
488 489 -5.3879649999999994E4
489 488 -5.4480649999999994E4
489 489 1.0836029999999999E5
489 490 -5.3879649999999994E4
490 489 -5.4480649999999994E4
490 490 1.0836029999999999E5
490 491 -5.3879649999999994E4
491 490 -5.4480649999999994E4
491 491 1.0836029999999999E5
491 492 -5.3879649999999994E4
492 491 -5.4480649999999994E4
492 492 1.0836029999999999E5
492 493 -5.3879649999999994E4
493 492 -5.4480649999999994E4
493 493 1.0836029999999999E5
493 494 -5.3879649999999994E4
494 493 -5.4480649999999994E4
494 494 1.0836029999999999E5
494 495 -5.3879649999999994E4
495 494 -5.4480649999999994E4
495 495 1.0836029999999999E5
495 496 -5.3879649999999994E4
496 495 -5.4480649999999994E4
496 496 1.0836029999999999E5
496 497 -5.3879649999999994E4
497 496 -5.4480649999999994E4
497 497 1.0836029999999999E5
497 498 -5.3879649999999994E4
498 497 -5.4480649999999994E4
498 498 1.0836029999999999E5
498 499 -5.3879649999999994E4
499 498 -5.4480649999999994E4
499 499 1.0836029999999999E5
499 500 -5.3879649999999994E4
500 499 -5.4480649999999994E4
500 500 1.0836029999999999E5
500 501 -5.3879649999999994E4
501 500 -5.4480649999999994E4
501 501 1.0836029999999999E5
501 502 -5.3879649999999994E4
502 501 -5.4480649999999994E4
502 502 1.0836029999999999E5
502 503 -5.3879649999999994E4
503 502 -5.4480649999999994E4
503 503 1.0836029999999999E5
503 504 -5.3879649999999994E4
504 503 -5.4480649999999994E4
504 504 1.0836029999999999E5
504 505 -5.3879649999999994E4
505 504 -5.4480649999999994E4
505 505 1.0836029999999999E5
505 506 -5.3879649999999994E4
506 505 -5.4480649999999994E4
506 506 1.0836029999999999E5
506 507 -5.3879649999999994E4
507 506 -5.4480649999999994E4
507 507 1.0836029999999999E5
507 508 -5.3879649999999994E4
508 507 -5.4480649999999994E4
508 508 1.0836029999999999E5
508 509 -5.3879649999999994E4
509 508 -5.4480649999999994E4
509 509 1.0836029999999999E5
509 510 -5.3879649999999994E4
510 509 -5.4480649999999994E4
510 510 1.0836029999999999E5
510 511 -5.3879649999999994E4
511 510 -5.4480649999999994E4
511 511 1.0836029999999999E5
511 512 -5.3879649999999994E4
512 511 -5.4480649999999994E4
512 512 1.0836029999999999E5
512 513 -5.3879649999999994E4
513 512 -5.4480649999999994E4
513 513 1.0836029999999999E5
513 514 -5.3879649999999994E4
514 513 -5.4480649999999994E4
514 514 1.0836029999999999E5
514 515 -5.3879649999999994E4
515 514 -5.4480649999999994E4
515 515 1.0836029999999999E5
515 516 -5.3879649999999994E4
516 515 -5.4480649999999994E4
516 516 1.0836029999999999E5
516 517 -5.3879649999999994E4
517 516 -5.4480649999999994E4
517 517 1.0836029999999999E5
517 518 -5.3879649999999994E4
518 517 -5.4480649999999994E4
518 518 1.0836029999999999E5
518 519 -5.3879649999999994E4
519 518 -5.4480649999999994E4
519 519 1.0836029999999999E5
519 520 -5.3879649999999994E4
520 519 -5.4480649999999994E4
520 520 1.0836029999999999E5
520 521 -5.3879649999999994E4
521 520 -5.4480649999999994E4
521 521 1.0836029999999999E5
521 522 -5.3879649999999994E4
522 521 -5.4480649999999994E4
522 522 1.0836029999999999E5
522 523 -5.3879649999999994E4
523 522 -5.4480649999999994E4
523 523 1.0836029999999999E5
523 524 -5.3879649999999994E4
524 523 -5.4480649999999994E4
524 524 1.0836029999999999E5
524 525 -5.3879649999999994E4
525 524 -5.4480649999999994E4
525 525 1.0836029999999999E5
525 526 -5.3879649999999994E4
526 525 -5.4480649999999994E4
526 526 1.0836029999999999E5
526 527 -5.3879649999999994E4
527 526 -5.4480649999999994E4
527 527 1.0836029999999999E5
527 528 -5.3879649999999994E4
528 527 -5.4480649999999994E4
528 528 1.0836029999999999E5
528 529 -5.3879649999999994E4
529 528 -5.4480649999999994E4
529 529 1.0836029999999999E5
529 530 -5.3879649999999994E4
530 529 -5.4480649999999994E4
530 530 1.0836029999999999E5
530 531 -5.3879649999999994E4
531 530 -5.4480649999999994E4
531 531 1.0836029999999999E5
531 532 -5.3879649999999994E4
532 531 -5.4480649999999994E4
532 532 1.0836029999999999E5
532 533 -5.3879649999999994E4
533 532 -5.4480649999999994E4
533 533 1.0836029999999999E5
533 534 -5.3879649999999994E4
534 533 -5.4480649999999994E4
534 534 1.0836029999999999E5
534 535 -5.3879649999999994E4
535 534 -5.4480649999999994E4
535 535 1.0836029999999999E5
535 536 -5.3879649999999994E4
536 535 -5.4480649999999994E4
536 536 1.0836029999999999E5
536 537 -5.3879649999999994E4
537 536 -5.4480649999999994E4
537 537 1.0836029999999999E5
537 538 -5.3879649999999994E4
538 537 -5.4480649999999994E4
538 538 1.0836029999999999E5
538 539 -5.3879649999999994E4
539 538 -5.4480649999999994E4
539 539 1.0836029999999999E5
539 540 -5.3879649999999994E4
540 539 -5.4480649999999994E4
540 540 1.0836029999999999E5
540 541 -5.3879649999999994E4
541 540 -5.4480649999999994E4
541 541 1.0836029999999999E5
541 542 -5.3879649999999994E4
542 541 -5.4480649999999994E4
542 542 1.0836029999999999E5
542 543 -5.3879649999999994E4
543 542 -5.4480649999999994E4
543 543 1.0836029999999999E5
543 544 -5.3879649999999994E4
544 543 -5.4480649999999994E4
544 544 1.0836029999999999E5
544 545 -5.3879649999999994E4
545 544 -5.4480649999999994E4
545 545 1.0836029999999999E5
545 546 -5.3879649999999994E4
546 545 -5.4480649999999994E4
546 546 1.0836029999999999E5
546 547 -5.3879649999999994E4
547 546 -5.4480649999999994E4
547 547 1.0836029999999999E5
547 548 -5.3879649999999994E4
548 547 -5.4480649999999994E4
548 548 1.0836029999999999E5
548 549 -5.3879649999999994E4
549 548 -5.4480649999999994E4
549 549 1.0836029999999999E5
549 550 -5.3879649999999994E4
550 549 -5.4480649999999994E4
550 550 1.0836029999999999E5
550 551 -5.3879649999999994E4
551 550 -5.4480649999999994E4
551 551 1.0836029999999999E5
551 552 -5.3879649999999994E4
552 551 -5.4480649999999994E4
552 552 1.0836029999999999E5
552 553 -5.3879649999999994E4
553 552 -5.4480649999999994E4
553 553 1.0836029999999999E5
553 554 -5.3879649999999994E4
554 553 -5.4480649999999994E4
554 554 1.0836029999999999E5
554 555 -5.3879649999999994E4
555 554 -5.4480649999999994E4
555 555 1.0836029999999999E5
555 556 -5.3879649999999994E4
556 555 -5.4480649999999994E4
556 556 1.0836029999999999E5
556 557 -5.3879649999999994E4
557 556 -5.4480649999999994E4
557 557 1.0836029999999999E5
557 558 -5.3879649999999994E4
558 557 -5.4480649999999994E4
558 558 1.0836029999999999E5
558 559 -5.3879649999999994E4
559 558 -5.4480649999999994E4
559 559 1.0836029999999999E5
559 560 -5.3879649999999994E4
560 559 -5.4480649999999994E4
560 560 1.0836029999999999E5
560 561 -5.3879649999999994E4
561 560 -5.4480649999999994E4
561 561 1.0836029999999999E5
561 562 -5.3879649999999994E4
562 561 -5.4480649999999994E4
562 562 1.0836029999999999E5
562 563 -5.3879649999999994E4
563 562 -5.4480649999999994E4
563 563 1.0836029999999999E5
563 564 -5.3879649999999994E4
564 563 -5.4480649999999994E4
564 564 1.0836029999999999E5
564 565 -5.3879649999999994E4
565 564 -5.4480649999999994E4
565 565 1.0836029999999999E5
565 566 -5.3879649999999994E4
566 565 -5.4480649999999994E4
566 566 1.0836029999999999E5
566 567 -5.3879649999999994E4
567 566 -5.4480649999999994E4
567 567 1.0836029999999999E5
567 568 -5.3879649999999994E4
568 567 -5.4480649999999994E4
568 568 1.0836029999999999E5
568 569 -5.3879649999999994E4
569 568 -5.4480649999999994E4
569 569 1.0836029999999999E5
569 570 -5.3879649999999994E4
570 569 -5.4480649999999994E4
570 570 1.0836029999999999E5
570 571 -5.3879649999999994E4
571 570 -5.4480649999999994E4
571 571 1.0836029999999999E5
571 572 -5.3879649999999994E4
572 571 -5.4480649999999994E4
572 572 1.0836029999999999E5
572 573 -5.3879649999999994E4
573 572 -5.4480649999999994E4
573 573 1.0836029999999999E5
573 574 -5.3879649999999994E4
574 573 -5.4480649999999994E4
574 574 1.0836029999999999E5
574 575 -5.3879649999999994E4
575 574 -5.4480649999999994E4
575 575 1.0836029999999999E5
575 576 -5.3879649999999994E4
576 575 -5.4480649999999994E4
576 576 1.0836029999999999E5
576 577 -5.3879649999999994E4
577 576 -5.4480649999999994E4
577 577 1.0836029999999999E5
577 578 -5.3879649999999994E4
578 577 -5.4480649999999994E4
578 578 1.0836029999999999E5
578 579 -5.3879649999999994E4
579 578 -5.4480649999999994E4
579 579 1.0836029999999999E5
579 580 -5.3879649999999994E4
580 579 -5.4480649999999994E4
580 580 1.0836029999999999E5
580 581 -5.3879649999999994E4
581 580 -5.4480649999999994E4
581 581 1.0836029999999999E5
581 582 -5.3879649999999994E4
582 581 -5.4480649999999994E4
582 582 1.0836029999999999E5
582 583 -5.3879649999999994E4
583 582 -5.4480649999999994E4
583 583 1.0836029999999999E5
583 584 -5.3879649999999994E4
584 583 -5.4480649999999994E4
584 584 1.0836029999999999E5
584 585 -5.3879649999999994E4
585 584 -5.4480649999999994E4
585 585 1.0836029999999999E5
585 586 -5.3879649999999994E4
586 585 -5.4480649999999994E4
586 586 1.0836029999999999E5
586 587 -5.3879649999999994E4
587 586 -5.4480649999999994E4
587 587 1.0836029999999999E5
587 588 -5.3879649999999994E4
588 587 -5.4480649999999994E4
588 588 1.0836029999999999E5
588 589 -5.3879649999999994E4
589 588 -5.4480649999999994E4
589 589 1.0836029999999999E5
589 590 -5.3879649999999994E4
590 589 -5.4480649999999994E4
590 590 1.0836029999999999E5
590 591 -5.3879649999999994E4
591 590 -5.4480649999999994E4
591 591 1.0836029999999999E5
591 592 -5.3879649999999994E4
592 591 -5.4480649999999994E4
592 592 1.0836029999999999E5
592 593 -5.3879649999999994E4
593 592 -5.4480649999999994E4
593 593 1.0836029999999999E5
593 594 -5.3879649999999994E4
594 593 -5.4480649999999994E4
594 594 1.0836029999999999E5
594 595 -5.3879649999999994E4
595 594 -5.4480649999999994E4
595 595 1.0836029999999999E5
595 596 -5.3879649999999994E4
596 595 -5.4480649999999994E4
596 596 1.0836029999999999E5
596 597 -5.3879649999999994E4
597 596 -5.4480649999999994E4
597 597 1.0836029999999999E5
597 598 -5.3879649999999994E4
598 597 -5.4480649999999994E4
598 598 1.0836029999999999E5
598 599 -5.3879649999999994E4
599 598 -5.4480649999999994E4
599 599 1.0836029999999999E5
599 600 -5.3879649999999994E4
600 599 -5.4480649999999994E4
600 600 1.0836029999999999E5
